     Program PWSCF v.6.7MaX starts on  2Aug2021 at 17:19:22

     K-points division:     npool     =       2
     R & G space division:  proc/nbgrp/npool/nimage =      24
     Waiting for input...
     Reading input from standard input
Warning: card &CELL ignored
Warning: card CELL_DYNAMICS             = 'BFGS', ignored
Warning: card PRESS                     = '0.0', ignored
Warning: card PRESS_CONV_THR            = '0.5', ignored
Warning: card / ignored
     Message from routine read_cards :
     DEPRECATED: no units specified in CELL_PARAMETERS card

     Current dimensions of program PWSCF are:
     Max number of different atomic species (ntypx) = 10
     Max number of k-points (npk) =  40000
     Max angular momentum in pseudopotentials (lmaxx) =  3
     Message from routine cell_base_init:
     DEPRECATED: use true lattice parameter, not A to a.u. conversion factor
 end of file reached, closing tag not found
     file Er.pbe-spdn-kjpaw_psl.1.0.0.UPF: wavefunction(s)  6S 5D renormalized
     file Br.pbe-dn-kjpaw_psl.1.0.0.UPF: wavefunction(s)  4S 4P 3D renormalized

     Subspace diagonalization in iterative solution of the eigenvalue problem:
     a serial algorithm will be used

     Found symmetry operation: I + ( -0.5000 -0.5000  0.0000)
     This is a supercell, fractional translations are disabled
     Message from routine setup:
     using ibrav=0 with symmetry is DISCOURAGED, use correct ibrav instead

     bravais-lattice index     =            0
     lattice parameter (alat)  =       1.8897  a.u.
     unit-cell volume          =    3688.3023 (a.u.)^3
     number of atoms/cell      =           20
     number of atomic types    =            3
     number of electrons       =       244.00
     number of Kohn-Sham states=          146
     kinetic-energy cutoff     =      60.0000  Ry
     charge density cutoff     =     300.0000  Ry
     scf convergence threshold =      1.0E-08
     mixing beta               =       0.4000
     number of iterations used =            8  plain     mixing
     Exchange-correlation= SLA  PW   PBX  PBC
                           (   1   4   3   4   0   0   0)

     celldm(1)=   1.889726  celldm(2)=   0.000000  celldm(3)=   0.000000
     celldm(4)=   0.000000  celldm(5)=   0.000000  celldm(6)=   0.000000

     crystal axes: (cart. coord. in units of alat)
               a(1) = (   6.967356   0.000000   0.000000 )
               a(2) = (   0.000000  11.998880   0.000000 )
               a(3) = (  -2.324723   0.000000   6.537643 )

     reciprocal axes: (cart. coord. in units 2 pi/alat)
               b(1) = (  0.143526  0.000000  0.051037 )
               b(2) = (  0.000000  0.083341  0.000000 )
               b(3) = (  0.000000  0.000000  0.152960 )

     PseudoPot. # 1 for Li read from file:
     /central/groups/SeeGroup/qe_pseudopotentials/Li.pbe-s-kjpaw_psl.1.0.0.UPF
     MD5 check sum: cc502796ee09d8b62ac346ee26e59beb
     Pseudo is Projector augmented-wave, Zval =  3.0
     Generated using &quot;atomic&quot; code by A. Dal Corso  v.6.3
     Shape of augmentation charge: PSQ
     Using radial grid of 1017 points,  4 beta functions with:
                l(1) =   0
                l(2) =   0
                l(3) =   1
                l(4) =   1
     Q(r) pseudized with 0 coefficients

     PseudoPot. # 2 for Er read from file:
     /central/groups/SeeGroup/qe_pseudopotentials/Er.pbe-spdn-kjpaw_psl.1.0.0.UPF
     MD5 check sum: a923254af2aef992cff3e18bc73f2922
     Pseudo is Projector augmented-wave + core cor, Zval = 11.0
     Generated using &quot;atomic&quot; code by A. Dal Corso  v.6.2.2
     Shape of augmentation charge: PSQ
     Using radial grid of 1267 points,  6 beta functions with:
                l(1) =   0
                l(2) =   0
                l(3) =   1
                l(4) =   1
                l(5) =   2
                l(6) =   2
     Q(r) pseudized with 0 coefficients

     PseudoPot. # 3 for Br read from file:
     /central/groups/SeeGroup/qe_pseudopotentials/Br.pbe-dn-kjpaw_psl.1.0.0.UPF
     MD5 check sum: 4ca4ebabfd6065c7bb707b2ebe99e9b3
     Pseudo is Projector augmented-wave + core cor, Zval = 17.0
     Generated using &quot;atomic&quot; code by A. Dal Corso  v.6.3
     Shape of augmentation charge: PSQ
     Using radial grid of 1213 points,  6 beta functions with:
                l(1) =   0
                l(2) =   0
                l(3) =   1
                l(4) =   1
                l(5) =   2
                l(6) =   2
     Q(r) pseudized with 0 coefficients

     atomic species   valence    mass     pseudopotential
        Li             3.00     6.94100     Li( 1.00)
        Er            11.00   167.25900     Er( 1.00)
        Br            17.00    79.90400     Br( 1.00)

      2 Sym. Ops. (no inversion) found

   Cartesian axes

     site n.     atom                  positions (alat units)
         1           Li  tau(   1) = (   3.4836780   9.9564306   0.0000000  )
         2           Li  tau(   2) = (   3.4836780   2.0173957   0.0000000  )
         3           Li  tau(   3) = (   2.3213165   7.8846440   3.2688215  )
         4           Li  tau(   4) = (   0.0000000   3.9569906   0.0000000  )
         5           Li  tau(   5) = (   0.0000000   8.0168357   0.0000000  )
         6           Li  tau(   6) = (  -1.1623615   1.8852040   3.2688215  )
         7           Er  tau(   7) = (   3.4836780   5.9699947   0.0000000  )
         8           Er  tau(   8) = (   0.0000000  11.9694347   0.0000000  )
         9           Br  tau(   9) = (   3.4471523   9.9581465   5.0158758  )
        10           Br  tau(  10) = (   3.5847273   1.9854607   4.9258002  )
        11           Br  tau(  11) = (   1.0579057   1.9854607   1.6118428  )
        12           Br  tau(  12) = (   1.1954807   9.9581465   1.5217672  )
        13           Br  tau(  13) = (  -0.0150075   0.0698395   4.9769442  )
        14           Br  tau(  14) = (   4.6576405   0.0698395   1.5606988  )
        15           Br  tau(  15) = (  -0.0365257   3.9587065   5.0158758  )
        16           Br  tau(  16) = (   0.1010493   7.9849007   4.9258002  )
        17           Br  tau(  17) = (   4.5415837   7.9849007   1.6118428  )
        18           Br  tau(  18) = (   4.6791587   3.9587065   1.5217672  )
        19           Br  tau(  19) = (   3.4686705   6.0692795   4.9769442  )
        20           Br  tau(  20) = (   1.1739625   6.0692795   1.5606988  )

     number of k points=    20  Fermi-Dirac smearing, width (Ry)=  0.0070
                       cart. coord. in units 2pi/alat
        k(    1) = (   0.0000000   0.0000000   0.0000000), wk =   0.0625000
        k(    2) = (   0.0000000   0.0000000   0.0382401), wk =   0.1250000
        k(    3) = (   0.0000000   0.0000000  -0.0764802), wk =   0.0625000
        k(    4) = (   0.0000000  -0.0416706   0.0000000), wk =   0.0625000
        k(    5) = (   0.0000000  -0.0416706   0.0382401), wk =   0.1250000
        k(    6) = (   0.0000000  -0.0416706  -0.0764802), wk =   0.0625000
        k(    7) = (   0.0358816   0.0000000   0.0127592), wk =   0.1250000
        k(    8) = (   0.0358816   0.0000000   0.0509992), wk =   0.1250000
        k(    9) = (   0.0358816   0.0000000  -0.0637210), wk =   0.1250000
        k(   10) = (   0.0358816   0.0000000  -0.0254809), wk =   0.1250000
        k(   11) = (   0.0358816  -0.0416706   0.0127592), wk =   0.1250000
        k(   12) = (   0.0358816  -0.0416706   0.0509992), wk =   0.1250000
        k(   13) = (   0.0358816  -0.0416706  -0.0637210), wk =   0.1250000
        k(   14) = (   0.0358816  -0.0416706  -0.0254809), wk =   0.1250000
        k(   15) = (  -0.0717632   0.0000000  -0.0255183), wk =   0.0625000
        k(   16) = (  -0.0717632   0.0000000   0.0127218), wk =   0.1250000
        k(   17) = (  -0.0717632   0.0000000  -0.1019985), wk =   0.0625000
        k(   18) = (  -0.0717632  -0.0416706  -0.0255183), wk =   0.0625000
        k(   19) = (  -0.0717632  -0.0416706   0.0127218), wk =   0.1250000
        k(   20) = (  -0.0717632  -0.0416706  -0.1019985), wk =   0.0625000

     Check: negative core charge=   -0.000002

     Initial potential from superposition of free atoms

     starting charge  243.93496, renormalised to  244.00000
     Starting wfcs are  164 randomized atomic wfcs
     Checking if some PAW data can be deallocated...

     Self-consistent Calculation

     iteration #  1     ecut=    60.00 Ry     beta= 0.40
     Davidson diagonalization with overlap
     ethr =  1.00E-02,  avg # of iterations =  5.0

     Threshold (ethr) on eigenvalues was too large:
     Diagonalizing with lowered threshold

     Davidson diagonalization with overlap
     c_bands:  1 eigenvalues not converged
     ethr =  1.16E-04,  avg # of iterations =  9.1

     total energy              =   -6740.44802005 Ry
     estimated scf accuracy    <       0.28215475 Ry

[...]

     total energy              =   -6740.47932067 Ry
     estimated scf accuracy    <       0.00000012 Ry

     iteration #  9     ecut=    60.00 Ry     beta= 0.40
     Davidson diagonalization with overlap
     ethr =  5.03E-11,  avg # of iterations =  2.0

     End of self-consistent calculation

          k = 0.0000 0.0000 0.0000 ( 28943 PWs)   bands (ev):

   -56.2566 -56.2566 -56.2566 -56.2565 -56.2537 -56.2536 -56.2536 -56.2536
   -56.2389 -56.2389 -56.2389 -56.2389 -56.2336 -56.2336 -56.2336 -56.2335
   -56.2312 -56.2312 -56.2312 -56.2312 -56.2177 -56.2177 -56.2176 -56.2176
   -56.2056 -56.2055 -56.2055 -56.2055 -56.2018 -56.2018 -56.2018 -56.2018
   -56.1911 -56.1911 -56.1910 -56.1910 -56.1882 -56.1882 -56.1880 -56.1880
   -56.1726 -56.1726 -56.1726 -56.1726 -56.1716 -56.1716 -56.1716 -56.1716
   -56.1710 -56.1710 -56.1709 -56.1709 -56.1648 -56.1648 -56.1646 -56.1646
   -56.1619 -56.1619 -56.1618 -56.1618 -46.9291 -46.9291 -42.0706 -42.0705
   -41.8027 -41.8027 -41.7743 -41.7742 -20.7578 -20.7577 -20.7524 -20.7524
   -20.7523 -20.7521 -10.7205 -10.5397 -10.3937 -10.2874 -10.2776 -10.2683
   -10.2359 -10.2312 -10.2236 -10.1592 -10.1538 -10.1280  -0.1649  -0.1559
     0.2213   0.2472   0.2642   0.4082   0.4573   0.6231   0.6758   0.7446
     0.8653   0.8654   0.8742   0.9995   1.1278   1.2431   1.2653   1.2690
     1.2755   1.4838   1.5264   1.6962   1.7412   1.9398   1.9822   2.0181
     2.0563   2.0740   2.1882   2.2417   2.3334   2.4633   2.5292   2.5293
     2.5742   2.5803   7.0494   7.3106   7.4465   7.4694   7.4730   7.5200
     7.5533   8.7246   8.7570   8.8085   9.1169   9.1671   9.3662   9.3998
     9.4917   9.7339   9.9252  10.3244  10.3254  10.3769  10.7023  10.8937
    10.9492  11.1007

[...]

          k = 0.0359-0.0417-0.0255 ( 28930 PWs)   bands (ev):

[...]

          k =-0.0718 0.0000-0.0255 ( 28928 PWs)   bands (ev):

[...]

          k =-0.0718-0.0417-0.1020 ( 28980 PWs)   bands (ev):

   -56.2566 -56.2566 -56.2565 -56.2565 -56.2537 -56.2537 -56.2536 -56.2536
   -56.2389 -56.2389 -56.2389 -56.2389 -56.2336 -56.2336 -56.2336 -56.2336
   -56.2312 -56.2312 -56.2312 -56.2312 -56.2177 -56.2177 -56.2176 -56.2176
   -56.2056 -56.2055 -56.2055 -56.2055 -56.2019 -56.2018 -56.2018 -56.2018
   -56.1911 -56.1911 -56.1910 -56.1910 -56.1882 -56.1882 -56.1880 -56.1880
   -56.1726 -56.1726 -56.1726 -56.1726 -56.1716 -56.1716 -56.1716 -56.1716
   -56.1710 -56.1710 -56.1709 -56.1709 -56.1648 -56.1648 -56.1646 -56.1646
   -56.1619 -56.1619 -56.1618 -56.1618 -46.9291 -46.9291 -42.0706 -42.0705
   -41.8028 -41.8027 -41.7743 -41.7743 -20.7578 -20.7578 -20.7526 -20.7526
   -20.7522 -20.7522 -10.4649 -10.4649 -10.3859 -10.3859 -10.3260 -10.3260
   -10.2481 -10.2481 -10.2156 -10.2156 -10.1855 -10.1855  -0.2025  -0.2025
     0.2440   0.2440   0.3329   0.3330   0.4957   0.4958   0.6897   0.6897
     0.9592   0.9592   1.1131   1.1131   1.2156   1.2157   1.5213   1.5213
     1.5501   1.5501   1.6835   1.6835   1.7415   1.7415   1.9854   1.9854
     2.1144   2.1145   2.1369   2.1370   2.2737   2.2737   2.3073   2.3073
     2.3680   2.3680   7.0335   7.0335   7.3017   7.3017   7.3576   7.3576
     8.6879   8.6879   8.7874   8.7875   9.1641   9.1641   9.2568   9.2568
     9.7601   9.7601  10.1688  10.1688  10.6335  10.6335  10.7854  10.7854
    10.8733  10.8734

     the Fermi energy is     4.8680 ev

!    total energy              =   -6740.47932080 Ry

     total all-electron energy =   -114993.495279 Ry
     estimated scf accuracy    <          7.7E-09 Ry
     smearing contrib. (-TS)   =      -0.00000000 Ry
     internal energy E=F+TS    =   -6740.47932080 Ry

     The total energy is F=E-TS. E is the sum of the following terms:
     one-electron contribution =   -3515.80817607 Ry
     hartree contribution      =    1688.13291671 Ry
     xc contribution           =    -503.26883742 Ry
     ewald contribution        =   -1690.68325647 Ry
     one-center paw contrib.   =   -2718.85196755 Ry

     convergence has been achieved in   9 iterations

     Forces acting on atoms (cartesian axes, Ry/au):

     atom    1 type  1   force =     0.00000000   -0.00195752    0.00000000
     atom    2 type  1   force =     0.00000000    0.00042090    0.00000000
     atom    3 type  1   force =     0.00000000   -0.00027306    0.00000000
     atom    4 type  1   force =     0.00000000   -0.00194531    0.00000000
     atom    5 type  1   force =     0.00000000    0.00042744    0.00000000
     atom    6 type  1   force =     0.00000000   -0.00026810    0.00000000
     atom    7 type  2   force =     0.00000000    0.00080758    0.00000000
     atom    8 type  2   force =     0.00000000    0.00082847    0.00000000
     atom    9 type  3   force =     0.00098766    0.00178349    0.00379541
     atom   10 type  3   force =     0.00308815   -0.00238947    0.00127981
     atom   11 type  3   force =    -0.00308815   -0.00238947   -0.00127981
     atom   12 type  3   force =    -0.00098766    0.00178349   -0.00379541
     atom   13 type  3   force =    -0.00328919    0.00148486    0.00333611
     atom   14 type  3   force =     0.00328919    0.00148486   -0.00333611
     atom   15 type  3   force =     0.00095062    0.00150714    0.00380367
     atom   16 type  3   force =     0.00307898   -0.00263926    0.00126053
     atom   17 type  3   force =    -0.00307898   -0.00263926   -0.00126053
     atom   18 type  3   force =    -0.00095062    0.00150714   -0.00380367
     atom   19 type  3   force =    -0.00318135    0.00123304    0.00335993
     atom   20 type  3   force =     0.00318135    0.00123304   -0.00335993

     Total force =     0.015680     Total SCF correction =     0.000336

     Computing stress (Cartesian axis) and pressure

          total   stress  (Ry/bohr**3)                   (kbar)     P=       -8.03
  -0.00005776   0.00000000   0.00000128           -8.50        0.00        0.19
   0.00000000  -0.00005926   0.00000000            0.00       -8.72        0.00
   0.00000128   0.00000000  -0.00004679            0.19        0.00       -6.88

     Writing output data file ./pwscf.save/

     General routines

     Parallel routines

   This run was terminated on:  17:20:46   2Aug2021

   JOB DONE.