     Program PWSCF v.6.7MaX starts on  2Aug2021 at 17:32: 0

     K-points division:     npool     =       2
     R & G space division:  proc/nbgrp/npool/nimage =      24
     Waiting for input...
     Reading input from standard input
Warning: card &CELL ignored
Warning: card CELL_DYNAMICS             = 'BFGS', ignored
Warning: card PRESS                     = '0.0', ignored
Warning: card PRESS_CONV_THR            = '0.5', ignored
Warning: card / ignored
     Message from routine read_cards :
     DEPRECATED: no units specified in CELL_PARAMETERS card

     Current dimensions of program PWSCF are:
     Max number of different atomic species (ntypx) = 10
     Max number of k-points (npk) =  40000
     Max angular momentum in pseudopotentials (lmaxx) =  3
     Message from routine cell_base_init:
     DEPRECATED: use true lattice parameter, not A to a.u. conversion factor
 end of file reached, closing tag not found
     file Er.pbe-spdn-kjpaw_psl.1.0.0.UPF: wavefunction(s)  6S 5D renormalized
     file Br.pbe-dn-kjpaw_psl.1.0.0.UPF: wavefunction(s)  4S 4P 3D renormalized

     Subspace diagonalization in iterative solution of the eigenvalue problem:
     a serial algorithm will be used

     Found symmetry operation: I + ( -0.5000 -0.5000  0.0000)
     This is a supercell, fractional translations are disabled
     Message from routine setup:
     using ibrav=0 with symmetry is DISCOURAGED, use correct ibrav instead

     bravais-lattice index     =            0
     lattice parameter (alat)  =       1.8897  a.u.
     unit-cell volume          =    3688.3023 (a.u.)^3
     number of atoms/cell      =           20
     number of atomic types    =            3
     number of electrons       =       244.00
     number of Kohn-Sham states=          146
     kinetic-energy cutoff     =      80.0000  Ry
     charge density cutoff     =     400.0000  Ry
     scf convergence threshold =      1.0E-08
     mixing beta               =       0.4000
     number of iterations used =            8  plain     mixing
     Exchange-correlation= SLA  PW   PBX  PBC
                           (   1   4   3   4   0   0   0)

     celldm(1)=   1.889726  celldm(2)=   0.000000  celldm(3)=   0.000000
     celldm(4)=   0.000000  celldm(5)=   0.000000  celldm(6)=   0.000000

     crystal axes: (cart. coord. in units of alat)
               a(1) = (   6.967356   0.000000   0.000000 )
               a(2) = (   0.000000  11.998880   0.000000 )
               a(3) = (  -2.324723   0.000000   6.537643 )

     reciprocal axes: (cart. coord. in units 2 pi/alat)
               b(1) = (  0.143526  0.000000  0.051037 )
               b(2) = (  0.000000  0.083341  0.000000 )
               b(3) = (  0.000000  0.000000  0.152960 )

     PseudoPot. # 1 for Li read from file:
     /central/groups/SeeGroup/qe_pseudopotentials/Li.pbe-s-kjpaw_psl.1.0.0.UPF
     MD5 check sum: cc502796ee09d8b62ac346ee26e59beb
     Pseudo is Projector augmented-wave, Zval =  3.0
     Generated using &quot;atomic&quot; code by A. Dal Corso  v.6.3
     Shape of augmentation charge: PSQ
     Using radial grid of 1017 points,  4 beta functions with:
                l(1) =   0
                l(2) =   0
                l(3) =   1
                l(4) =   1
     Q(r) pseudized with 0 coefficients

     PseudoPot. # 2 for Er read from file:
     /central/groups/SeeGroup/qe_pseudopotentials/Er.pbe-spdn-kjpaw_psl.1.0.0.UPF
     MD5 check sum: a923254af2aef992cff3e18bc73f2922
     Pseudo is Projector augmented-wave + core cor, Zval = 11.0
     Generated using &quot;atomic&quot; code by A. Dal Corso  v.6.2.2
     Shape of augmentation charge: PSQ
     Using radial grid of 1267 points,  6 beta functions with:
                l(1) =   0
                l(2) =   0
                l(3) =   1
                l(4) =   1
                l(5) =   2
                l(6) =   2
     Q(r) pseudized with 0 coefficients

     PseudoPot. # 3 for Br read from file:
     /central/groups/SeeGroup/qe_pseudopotentials/Br.pbe-dn-kjpaw_psl.1.0.0.UPF
     MD5 check sum: 4ca4ebabfd6065c7bb707b2ebe99e9b3
     Pseudo is Projector augmented-wave + core cor, Zval = 17.0
     Generated using &quot;atomic&quot; code by A. Dal Corso  v.6.3
     Shape of augmentation charge: PSQ
     Using radial grid of 1213 points,  6 beta functions with:
                l(1) =   0
                l(2) =   0
                l(3) =   1
                l(4) =   1
                l(5) =   2
                l(6) =   2
     Q(r) pseudized with 0 coefficients

     atomic species   valence    mass     pseudopotential
        Li             3.00     6.94100     Li( 1.00)
        Er            11.00   167.25900     Er( 1.00)
        Br            17.00    79.90400     Br( 1.00)

      2 Sym. Ops. (no inversion) found

   Cartesian axes

     site n.     atom                  positions (alat units)
         1           Li  tau(   1) = (   3.4836780   9.9564306   0.0000000  )
         2           Li  tau(   2) = (   3.4836780   2.0173957   0.0000000  )
         3           Li  tau(   3) = (   2.3213165   7.8846440   3.2688215  )
         4           Li  tau(   4) = (   0.0000000   3.9569906   0.0000000  )
         5           Li  tau(   5) = (   0.0000000   8.0168357   0.0000000  )
         6           Li  tau(   6) = (  -1.1623615   1.8852040   3.2688215  )
         7           Er  tau(   7) = (   3.4836780   5.9699947   0.0000000  )
         8           Er  tau(   8) = (   0.0000000  11.9694347   0.0000000  )
         9           Br  tau(   9) = (   3.4471523   9.9581465   5.0158758  )
        10           Br  tau(  10) = (   3.5847273   1.9854607   4.9258002  )
        11           Br  tau(  11) = (   1.0579057   1.9854607   1.6118428  )
        12           Br  tau(  12) = (   1.1954807   9.9581465   1.5217672  )
        13           Br  tau(  13) = (  -0.0150075   0.0698395   4.9769442  )
        14           Br  tau(  14) = (   4.6576405   0.0698395   1.5606988  )
        15           Br  tau(  15) = (  -0.0365257   3.9587065   5.0158758  )
        16           Br  tau(  16) = (   0.1010493   7.9849007   4.9258002  )
        17           Br  tau(  17) = (   4.5415837   7.9849007   1.6118428  )
        18           Br  tau(  18) = (   4.6791587   3.9587065   1.5217672  )
        19           Br  tau(  19) = (   3.4686705   6.0692795   4.9769442  )
        20           Br  tau(  20) = (   1.1739625   6.0692795   1.5606988  )

     number of k points=    40  Fermi-Dirac smearing, width (Ry)=  0.0070
                       cart. coord. in units 2pi/alat
        k(    1) = (   0.0000000   0.0000000   0.0000000), wk =   0.0185185
        k(    2) = (   0.0000000   0.0000000   0.0254934), wk =   0.0370370
        k(    3) = (   0.0000000   0.0000000   0.0509868), wk =   0.0370370
        k(    4) = (   0.0000000   0.0000000  -0.0764802), wk =   0.0185185
        k(    5) = (   0.0000000   0.0277804   0.0000000), wk =   0.0370370
        k(    6) = (   0.0000000   0.0277804   0.0254934), wk =   0.0740741
        k(    7) = (   0.0000000   0.0277804   0.0509868), wk =   0.0740741
        k(    8) = (   0.0000000   0.0277804  -0.0764802), wk =   0.0370370
        k(    9) = (   0.0239211   0.0000000   0.0085061), wk =   0.0370370
        k(   10) = (   0.0239211   0.0000000   0.0339995), wk =   0.0370370
        k(   11) = (   0.0239211   0.0000000   0.0594929), wk =   0.0370370
        k(   12) = (   0.0239211   0.0000000  -0.0679741), wk =   0.0370370
        k(   13) = (   0.0239211   0.0000000  -0.0424807), wk =   0.0370370
        k(   14) = (   0.0239211   0.0000000  -0.0169873), wk =   0.0370370
        k(   15) = (   0.0239211   0.0277804   0.0085061), wk =   0.0740741
        k(   16) = (   0.0239211   0.0277804   0.0339995), wk =   0.0740741
        k(   17) = (   0.0239211   0.0277804   0.0594929), wk =   0.0740741
        k(   18) = (   0.0239211   0.0277804  -0.0679741), wk =   0.0740741
        k(   19) = (   0.0239211   0.0277804  -0.0424807), wk =   0.0740741
        k(   20) = (   0.0239211   0.0277804  -0.0169873), wk =   0.0740741
        k(   21) = (   0.0478422   0.0000000   0.0170122), wk =   0.0370370
        k(   22) = (   0.0478422   0.0000000   0.0425056), wk =   0.0370370
        k(   23) = (   0.0478422   0.0000000   0.0679990), wk =   0.0370370
        k(   24) = (   0.0478422   0.0000000  -0.0594680), wk =   0.0370370
        k(   25) = (   0.0478422   0.0000000  -0.0339746), wk =   0.0370370
        k(   26) = (   0.0478422   0.0000000  -0.0084812), wk =   0.0370370
        k(   27) = (   0.0478422   0.0277804   0.0170122), wk =   0.0740741
        k(   28) = (   0.0478422   0.0277804   0.0425056), wk =   0.0740741
        k(   29) = (   0.0478422   0.0277804   0.0679990), wk =   0.0740741
        k(   30) = (   0.0478422   0.0277804  -0.0594680), wk =   0.0740741
        k(   31) = (   0.0478422   0.0277804  -0.0339746), wk =   0.0740741
        k(   32) = (   0.0478422   0.0277804  -0.0084812), wk =   0.0740741
        k(   33) = (  -0.0717632   0.0000000  -0.0255183), wk =   0.0185185
        k(   34) = (  -0.0717632   0.0000000  -0.0000249), wk =   0.0370370
        k(   35) = (  -0.0717632   0.0000000   0.0254685), wk =   0.0370370
        k(   36) = (  -0.0717632   0.0000000  -0.1019985), wk =   0.0185185
        k(   37) = (  -0.0717632   0.0277804  -0.0255183), wk =   0.0370370
        k(   38) = (  -0.0717632   0.0277804  -0.0000249), wk =   0.0740741
        k(   39) = (  -0.0717632   0.0277804   0.0254685), wk =   0.0740741
        k(   40) = (  -0.0717632   0.0277804  -0.1019985), wk =   0.0370370

     Initial potential from superposition of free atoms

     starting charge  243.93496, renormalised to  244.00000
     Starting wfcs are  164 randomized atomic wfcs
     Checking if some PAW data can be deallocated...

     Self-consistent Calculation

     iteration #  1     ecut=    80.00 Ry     beta= 0.40
     Davidson diagonalization with overlap
     ethr =  1.00E-02,  avg # of iterations =  5.2

     Threshold (ethr) on eigenvalues was too large:
     Diagonalizing with lowered threshold

     Davidson diagonalization with overlap
     ethr =  1.16E-04,  avg # of iterations =  9.4

     total energy              =   -6740.51665906 Ry
     estimated scf accuracy    <       0.28201858 Ry

[...]

     iteration #  4     ecut=    80.00 Ry     beta= 0.40
     Davidson diagonalization with overlap
     c_bands:  1 eigenvalues not converged
     ethr =  2.24E-06,  avg # of iterations =  9.3

[...]

     total energy              =   -6740.54842399 Ry
     estimated scf accuracy    <       0.00000011 Ry

     iteration #  9     ecut=    80.00 Ry     beta= 0.40
     Davidson diagonalization with overlap
     ethr =  4.55E-11,  avg # of iterations =  2.0

     End of self-consistent calculation

          k = 0.0000 0.0000 0.0000 ( 44625 PWs)   bands (ev):

   -56.2781 -56.2780 -56.2780 -56.2780 -56.2752 -56.2751 -56.2751 -56.2751
   -56.2604 -56.2604 -56.2603 -56.2603 -56.2552 -56.2551 -56.2551 -56.2551
   -56.2528 -56.2528 -56.2528 -56.2527 -56.2393 -56.2393 -56.2393 -56.2393
   -56.2272 -56.2272 -56.2272 -56.2272 -56.2236 -56.2236 -56.2236 -56.2235
   -56.2125 -56.2125 -56.2124 -56.2124 -56.2096 -56.2095 -56.2095 -56.2095
   -56.1943 -56.1943 -56.1943 -56.1943 -56.1933 -56.1933 -56.1933 -56.1933
   -56.1924 -56.1924 -56.1923 -56.1923 -56.1863 -56.1862 -56.1862 -56.1862
   -56.1833 -56.1833 -56.1833 -56.1833 -46.9314 -46.9314 -42.0575 -42.0575
   -41.7891 -41.7891 -41.7606 -41.7606 -20.7595 -20.7595 -20.7542 -20.7541
   -20.7541 -20.7539 -10.7218 -10.5408 -10.3947 -10.2883 -10.2785 -10.2692
   -10.2366 -10.2319 -10.2244 -10.1600 -10.1546 -10.1288  -0.1679  -0.1589
     0.2184   0.2446   0.2635   0.4077   0.4553   0.6223   0.6727   0.7415
     0.8625   0.8627   0.8732   0.9984   1.1254   1.2413   1.2643   1.2679
     1.2731   1.4829   1.5254   1.6952   1.7403   1.9382   1.9806   2.0170
     2.0554   2.0731   2.1872   2.2406   2.3323   2.4623   2.5281   2.5283
     2.5731   2.5793   7.0476   7.3039   7.4454   7.4663   7.4672   7.5188
     7.5481   8.7251   8.7445   8.8090   9.1082   9.1643   9.3655   9.3992
     9.4783   9.7253   9.9188  10.3126  10.3258  10.3776  10.6747  10.8622
    10.9495  11.1012

[...]

          k = 0.0478 0.0278-0.0085 ( 44576 PWs)   bands (ev):

[...]

          k =-0.0718 0.0000-0.0255 ( 44568 PWs)   bands (ev):

[...]

          k =-0.0718 0.0278-0.1020 ( 44582 PWs)   bands (ev):

   -56.2781 -56.2781 -56.2780 -56.2780 -56.2751 -56.2751 -56.2751 -56.2751
   -56.2603 -56.2603 -56.2603 -56.2603 -56.2552 -56.2551 -56.2551 -56.2551
   -56.2528 -56.2528 -56.2527 -56.2527 -56.2393 -56.2393 -56.2393 -56.2393
   -56.2272 -56.2272 -56.2272 -56.2272 -56.2236 -56.2236 -56.2235 -56.2235
   -56.2125 -56.2125 -56.2124 -56.2124 -56.2095 -56.2095 -56.2095 -56.2095
   -56.1943 -56.1943 -56.1943 -56.1943 -56.1933 -56.1933 -56.1933 -56.1933
   -56.1924 -56.1924 -56.1923 -56.1923 -56.1862 -56.1862 -56.1862 -56.1862
   -56.1833 -56.1833 -56.1833 -56.1833 -46.9314 -46.9314 -42.0575 -42.0575
   -41.7891 -41.7891 -41.7606 -41.7606 -20.7595 -20.7595 -20.7543 -20.7543
   -20.7540 -20.7540 -10.4701 -10.4701 -10.3788 -10.3788 -10.3256 -10.3256
   -10.2554 -10.2554 -10.2196 -10.2196 -10.1819 -10.1819  -0.1813  -0.1813
     0.2419   0.2419   0.3279   0.3279   0.4640   0.4640   0.6657   0.6657
     0.9200   0.9200   1.1428   1.1428   1.2274   1.2274   1.5268   1.5268
     1.5993   1.5993   1.6909   1.6909   1.7311   1.7311   1.9489   1.9489
     2.1047   2.1047   2.1246   2.1246   2.2722   2.2722   2.3055   2.3055
     2.3957   2.3957   7.0508   7.0508   7.2903   7.2903   7.3347   7.3347
     8.6817   8.6817   8.8086   8.8086   9.1725   9.1725   9.2718   9.2718
     9.6730   9.6730  10.0988  10.0988  10.4101  10.4101  10.6398  10.6398
    10.9308  10.9308

     the Fermi energy is     4.8519 ev

!    total energy              =   -6740.54842403 Ry

     total all-electron energy =   -114993.564382 Ry
     estimated scf accuracy    <          8.2E-09 Ry
     smearing contrib. (-TS)   =      -0.00000000 Ry
     internal energy E=F+TS    =   -6740.54842403 Ry

     The total energy is F=E-TS. E is the sum of the following terms:
     one-electron contribution =   -3515.74916712 Ry
     hartree contribution      =    1687.86946581 Ry
     xc contribution           =    -503.21617148 Ry
     ewald contribution        =   -1690.68325647 Ry
     one-center paw contrib.   =   -2718.76929477 Ry

     convergence has been achieved in   9 iterations

     Forces acting on atoms (cartesian axes, Ry/au):

     atom    1 type  1   force =     0.00000000   -0.00204597    0.00000000
     atom    2 type  1   force =     0.00000000    0.00041201    0.00000000
     atom    3 type  1   force =     0.00000000   -0.00038027    0.00000000
     atom    4 type  1   force =     0.00000000   -0.00204301    0.00000000
     atom    5 type  1   force =     0.00000000    0.00041539    0.00000000
     atom    6 type  1   force =     0.00000000   -0.00038195    0.00000000
     atom    7 type  2   force =     0.00000000    0.00081827    0.00000000
     atom    8 type  2   force =     0.00000000    0.00082173    0.00000000
     atom    9 type  3   force =     0.00088394    0.00153682    0.00386124
     atom   10 type  3   force =     0.00317323   -0.00241616    0.00127755
     atom   11 type  3   force =    -0.00317323   -0.00241616   -0.00127755
     atom   12 type  3   force =    -0.00088394    0.00153682   -0.00386124
     atom   13 type  3   force =    -0.00317347    0.00145141    0.00333401
     atom   14 type  3   force =     0.00317347    0.00145141   -0.00333401
     atom   15 type  3   force =     0.00091429    0.00153417    0.00392356
     atom   16 type  3   force =     0.00316579   -0.00240083    0.00128961
     atom   17 type  3   force =    -0.00316579   -0.00240083   -0.00128961
     atom   18 type  3   force =    -0.00091429    0.00153417   -0.00392356
     atom   19 type  3   force =    -0.00313892    0.00148648    0.00335533
     atom   20 type  3   force =     0.00313892    0.00148648   -0.00335533

     Total force =     0.015710     Total SCF correction =     0.000318

     Computing stress (Cartesian axis) and pressure

          total   stress  (Ry/bohr**3)                   (kbar)     P=       -7.48
  -0.00005395   0.00000000   0.00000131           -7.94        0.00        0.19
   0.00000000  -0.00005555   0.00000000            0.00       -8.17        0.00
   0.00000131   0.00000000  -0.00004301            0.19        0.00       -6.33

     Writing output data file ./pwscf.save/

     General routines

     Parallel routines

   This run was terminated on:  17:36:15   2Aug2021

   JOB DONE.