     Program PWSCF v.6.7MaX starts on  2Aug2021 at 17:22: 0

     K-points division:     npool     =       2
     R & G space division:  proc/nbgrp/npool/nimage =      24
     Waiting for input...
     Reading input from standard input
Warning: card &CELL ignored
Warning: card CELL_DYNAMICS             = 'BFGS', ignored
Warning: card PRESS                     = '0.0', ignored
Warning: card PRESS_CONV_THR            = '0.5', ignored
Warning: card / ignored
     Message from routine read_cards :
     DEPRECATED: no units specified in CELL_PARAMETERS card

     Current dimensions of program PWSCF are:
     Max number of different atomic species (ntypx) = 10
     Max number of k-points (npk) =  40000
     Max angular momentum in pseudopotentials (lmaxx) =  3
     Message from routine cell_base_init:
     DEPRECATED: use true lattice parameter, not A to a.u. conversion factor
 end of file reached, closing tag not found
     file Er.pbe-spdn-kjpaw_psl.1.0.0.UPF: wavefunction(s)  6S 5D renormalized
     file Br.pbe-dn-kjpaw_psl.1.0.0.UPF: wavefunction(s)  4S 4P 3D renormalized

     Subspace diagonalization in iterative solution of the eigenvalue problem:
     a serial algorithm will be used

     Found symmetry operation: I + ( -0.5000 -0.5000  0.0000)
     This is a supercell, fractional translations are disabled
     Message from routine setup:
     using ibrav=0 with symmetry is DISCOURAGED, use correct ibrav instead

     bravais-lattice index     =            0
     lattice parameter (alat)  =       1.8897  a.u.
     unit-cell volume          =    3688.3023 (a.u.)^3
     number of atoms/cell      =           20
     number of atomic types    =            3
     number of electrons       =       244.00
     number of Kohn-Sham states=          146
     kinetic-energy cutoff     =     140.0000  Ry
     charge density cutoff     =     700.0000  Ry
     scf convergence threshold =      1.0E-08
     mixing beta               =       0.4000
     number of iterations used =            8  plain     mixing
     Exchange-correlation= SLA  PW   PBX  PBC
                           (   1   4   3   4   0   0   0)

     celldm(1)=   1.889726  celldm(2)=   0.000000  celldm(3)=   0.000000
     celldm(4)=   0.000000  celldm(5)=   0.000000  celldm(6)=   0.000000

     crystal axes: (cart. coord. in units of alat)
               a(1) = (   6.967356   0.000000   0.000000 )
               a(2) = (   0.000000  11.998880   0.000000 )
               a(3) = (  -2.324723   0.000000   6.537643 )

     reciprocal axes: (cart. coord. in units 2 pi/alat)
               b(1) = (  0.143526  0.000000  0.051037 )
               b(2) = (  0.000000  0.083341  0.000000 )
               b(3) = (  0.000000  0.000000  0.152960 )

     PseudoPot. # 1 for Li read from file:
     /central/groups/SeeGroup/qe_pseudopotentials/Li.pbe-s-kjpaw_psl.1.0.0.UPF
     MD5 check sum: cc502796ee09d8b62ac346ee26e59beb
     Pseudo is Projector augmented-wave, Zval =  3.0
     Generated using &quot;atomic&quot; code by A. Dal Corso  v.6.3
     Shape of augmentation charge: PSQ
     Using radial grid of 1017 points,  4 beta functions with:
                l(1) =   0
                l(2) =   0
                l(3) =   1
                l(4) =   1
     Q(r) pseudized with 0 coefficients

     PseudoPot. # 2 for Er read from file:
     /central/groups/SeeGroup/qe_pseudopotentials/Er.pbe-spdn-kjpaw_psl.1.0.0.UPF
     MD5 check sum: a923254af2aef992cff3e18bc73f2922
     Pseudo is Projector augmented-wave + core cor, Zval = 11.0
     Generated using &quot;atomic&quot; code by A. Dal Corso  v.6.2.2
     Shape of augmentation charge: PSQ
     Using radial grid of 1267 points,  6 beta functions with:
                l(1) =   0
                l(2) =   0
                l(3) =   1
                l(4) =   1
                l(5) =   2
                l(6) =   2
     Q(r) pseudized with 0 coefficients

     PseudoPot. # 3 for Br read from file:
     /central/groups/SeeGroup/qe_pseudopotentials/Br.pbe-dn-kjpaw_psl.1.0.0.UPF
     MD5 check sum: 4ca4ebabfd6065c7bb707b2ebe99e9b3
     Pseudo is Projector augmented-wave + core cor, Zval = 17.0
     Generated using &quot;atomic&quot; code by A. Dal Corso  v.6.3
     Shape of augmentation charge: PSQ
     Using radial grid of 1213 points,  6 beta functions with:
                l(1) =   0
                l(2) =   0
                l(3) =   1
                l(4) =   1
                l(5) =   2
                l(6) =   2
     Q(r) pseudized with 0 coefficients

     atomic species   valence    mass     pseudopotential
        Li             3.00     6.94100     Li( 1.00)
        Er            11.00   167.25900     Er( 1.00)
        Br            17.00    79.90400     Br( 1.00)

      2 Sym. Ops. (no inversion) found

   Cartesian axes

     site n.     atom                  positions (alat units)
         1           Li  tau(   1) = (   3.4836780   9.9564306   0.0000000  )
         2           Li  tau(   2) = (   3.4836780   2.0173957   0.0000000  )
         3           Li  tau(   3) = (   2.3213165   7.8846440   3.2688215  )
         4           Li  tau(   4) = (   0.0000000   3.9569906   0.0000000  )
         5           Li  tau(   5) = (   0.0000000   8.0168357   0.0000000  )
         6           Li  tau(   6) = (  -1.1623615   1.8852040   3.2688215  )
         7           Er  tau(   7) = (   3.4836780   5.9699947   0.0000000  )
         8           Er  tau(   8) = (   0.0000000  11.9694347   0.0000000  )
         9           Br  tau(   9) = (   3.4471523   9.9581465   5.0158758  )
        10           Br  tau(  10) = (   3.5847273   1.9854607   4.9258002  )
        11           Br  tau(  11) = (   1.0579057   1.9854607   1.6118428  )
        12           Br  tau(  12) = (   1.1954807   9.9581465   1.5217672  )
        13           Br  tau(  13) = (  -0.0150075   0.0698395   4.9769442  )
        14           Br  tau(  14) = (   4.6576405   0.0698395   1.5606988  )
        15           Br  tau(  15) = (  -0.0365257   3.9587065   5.0158758  )
        16           Br  tau(  16) = (   0.1010493   7.9849007   4.9258002  )
        17           Br  tau(  17) = (   4.5415837   7.9849007   1.6118428  )
        18           Br  tau(  18) = (   4.6791587   3.9587065   1.5217672  )
        19           Br  tau(  19) = (   3.4686705   6.0692795   4.9769442  )
        20           Br  tau(  20) = (   1.1739625   6.0692795   1.5606988  )

     number of k points=    20  Fermi-Dirac smearing, width (Ry)=  0.0070
                       cart. coord. in units 2pi/alat
        k(    1) = (   0.0000000   0.0000000   0.0000000), wk =   0.0625000
        k(    2) = (   0.0000000   0.0000000   0.0382401), wk =   0.1250000
        k(    3) = (   0.0000000   0.0000000  -0.0764802), wk =   0.0625000
        k(    4) = (   0.0000000  -0.0416706   0.0000000), wk =   0.0625000
        k(    5) = (   0.0000000  -0.0416706   0.0382401), wk =   0.1250000
        k(    6) = (   0.0000000  -0.0416706  -0.0764802), wk =   0.0625000
        k(    7) = (   0.0358816   0.0000000   0.0127592), wk =   0.1250000
        k(    8) = (   0.0358816   0.0000000   0.0509992), wk =   0.1250000
        k(    9) = (   0.0358816   0.0000000  -0.0637210), wk =   0.1250000
        k(   10) = (   0.0358816   0.0000000  -0.0254809), wk =   0.1250000
        k(   11) = (   0.0358816  -0.0416706   0.0127592), wk =   0.1250000
        k(   12) = (   0.0358816  -0.0416706   0.0509992), wk =   0.1250000
        k(   13) = (   0.0358816  -0.0416706  -0.0637210), wk =   0.1250000
        k(   14) = (   0.0358816  -0.0416706  -0.0254809), wk =   0.1250000
        k(   15) = (  -0.0717632   0.0000000  -0.0255183), wk =   0.0625000
        k(   16) = (  -0.0717632   0.0000000   0.0127218), wk =   0.1250000
        k(   17) = (  -0.0717632   0.0000000  -0.1019985), wk =   0.0625000
        k(   18) = (  -0.0717632  -0.0416706  -0.0255183), wk =   0.0625000
        k(   19) = (  -0.0717632  -0.0416706   0.0127218), wk =   0.1250000
        k(   20) = (  -0.0717632  -0.0416706  -0.1019985), wk =   0.0625000

     Initial potential from superposition of free atoms

     starting charge  243.93496, renormalised to  244.00000
     Starting wfcs are  164 randomized atomic wfcs
     Checking if some PAW data can be deallocated...

     Self-consistent Calculation

     iteration #  1     ecut=   140.00 Ry     beta= 0.40
     Davidson diagonalization with overlap
     ethr =  1.00E-02,  avg # of iterations =  5.5

     Threshold (ethr) on eigenvalues was too large:
     Diagonalizing with lowered threshold

     Davidson diagonalization with overlap
     ethr =  1.17E-04,  avg # of iterations =  8.4

     total energy              =   -6740.53083163 Ry
     estimated scf accuracy    <       0.28254228 Ry

[...]

     total energy              =   -6740.56288242 Ry
     estimated scf accuracy    <       0.00000012 Ry

     iteration #  9     ecut=   140.00 Ry     beta= 0.40
     Davidson diagonalization with overlap
     ethr =  4.97E-11,  avg # of iterations =  2.0

     End of self-consistent calculation

          k = 0.0000 0.0000 0.0000 (103225 PWs)   bands (ev):

   -56.2758 -56.2757 -56.2757 -56.2756 -56.2728 -56.2728 -56.2727 -56.2727
   -56.2580 -56.2580 -56.2579 -56.2579 -56.2529 -56.2528 -56.2528 -56.2528
   -56.2505 -56.2505 -56.2504 -56.2504 -56.2369 -56.2369 -56.2368 -56.2368
   -56.2248 -56.2248 -56.2247 -56.2247 -56.2211 -56.2211 -56.2211 -56.2211
   -56.2100 -56.2100 -56.2100 -56.2099 -56.2071 -56.2071 -56.2070 -56.2070
   -56.1919 -56.1919 -56.1918 -56.1918 -56.1909 -56.1909 -56.1909 -56.1909
   -56.1899 -56.1899 -56.1899 -56.1898 -56.1838 -56.1838 -56.1838 -56.1838
   -56.1808 -56.1808 -56.1808 -56.1808 -46.9321 -46.9320 -42.0680 -42.0680
   -41.7993 -41.7993 -41.7709 -41.7708 -20.7600 -20.7599 -20.7546 -20.7546
   -20.7545 -20.7543 -10.7217 -10.5407 -10.3947 -10.2882 -10.2784 -10.2691
   -10.2365 -10.2318 -10.2243 -10.1599 -10.1545 -10.1287  -0.1684  -0.1594
     0.2179   0.2442   0.2633   0.4075   0.4549   0.6221   0.6722   0.7410
     0.8621   0.8623   0.8731   0.9982   1.1250   1.2411   1.2642   1.2678
     1.2728   1.4827   1.5252   1.6951   1.7402   1.9380   1.9804   2.0168
     2.0553   2.0730   2.1871   2.2405   2.3322   2.4622   2.5281   2.5282
     2.5730   2.5792   7.0473   7.3026   7.4452   7.4650   7.4669   7.5186
     7.5471   8.7245   8.7420   8.8084   9.1064   9.1638   9.3651   9.3989
     9.4757   9.7235   9.9170  10.3103  10.3251  10.3769  10.6700  10.8568
    10.9489  11.1004

[...]

          k = 0.0359-0.0417-0.0255 (103156 PWs)   bands (ev):

[...]

          k =-0.0718 0.0000-0.0255 (103168 PWs)   bands (ev):

[...]

          k =-0.0718-0.0417-0.1020 (103264 PWs)   bands (ev):

   -56.2758 -56.2757 -56.2757 -56.2757 -56.2728 -56.2728 -56.2727 -56.2727
   -56.2580 -56.2580 -56.2579 -56.2579 -56.2529 -56.2528 -56.2528 -56.2528
   -56.2505 -56.2505 -56.2504 -56.2504 -56.2369 -56.2369 -56.2368 -56.2368
   -56.2248 -56.2248 -56.2247 -56.2247 -56.2211 -56.2211 -56.2211 -56.2211
   -56.2100 -56.2100 -56.2100 -56.2099 -56.2071 -56.2071 -56.2070 -56.2070
   -56.1919 -56.1919 -56.1918 -56.1918 -56.1909 -56.1909 -56.1909 -56.1909
   -56.1899 -56.1899 -56.1899 -56.1898 -56.1838 -56.1838 -56.1838 -56.1838
   -56.1808 -56.1808 -56.1808 -56.1808 -46.9321 -46.9320 -42.0680 -42.0680
   -41.7993 -41.7993 -41.7709 -41.7708 -20.7601 -20.7600 -20.7549 -20.7548
   -20.7545 -20.7544 -10.4657 -10.4657 -10.3869 -10.3869 -10.3268 -10.3268
   -10.2488 -10.2488 -10.2163 -10.2163 -10.1863 -10.1862  -0.2059  -0.2059
     0.2426   0.2427   0.3302   0.3302   0.4934   0.4934   0.6857   0.6857
     0.9556   0.9556   1.1118   1.1118   1.2147   1.2147   1.5199   1.5199
     1.5487   1.5487   1.6823   1.6823   1.7402   1.7402   1.9840   1.9840
     2.1133   2.1134   2.1358   2.1358   2.2726   2.2727   2.3063   2.3063
     2.3669   2.3669   7.0313   7.0313   7.2997   7.2998   7.3555   7.3555
     8.6869   8.6869   8.7784   8.7784   9.1449   9.1449   9.2486   9.2486
     9.7479   9.7479  10.1584  10.1585  10.6114  10.6114  10.7738  10.7738
    10.8713  10.8714

     the Fermi energy is     4.8540 ev

!    total energy              =   -6740.56288246 Ry

     total all-electron energy =   -114993.578840 Ry
     estimated scf accuracy    <          8.5E-09 Ry
     smearing contrib. (-TS)   =      -0.00000000 Ry
     internal energy E=F+TS    =   -6740.56288246 Ry

     The total energy is F=E-TS. E is the sum of the following terms:
     one-electron contribution =   -3515.78276209 Ry
     hartree contribution      =    1687.89716348 Ry
     xc contribution           =    -503.21659941 Ry
     ewald contribution        =   -1690.68325647 Ry
     one-center paw contrib.   =   -2718.77742798 Ry

     convergence has been achieved in   9 iterations

     Forces acting on atoms (cartesian axes, Ry/au):

     atom    1 type  1   force =     0.00000000   -0.00206387    0.00000000
     atom    2 type  1   force =     0.00000000    0.00042202    0.00000000
     atom    3 type  1   force =     0.00000000   -0.00039781    0.00000000
     atom    4 type  1   force =     0.00000000   -0.00206305    0.00000000
     atom    5 type  1   force =     0.00000000    0.00042796    0.00000000
     atom    6 type  1   force =     0.00000000   -0.00040078    0.00000000
     atom    7 type  2   force =     0.00000000    0.00081733    0.00000000
     atom    8 type  2   force =     0.00000000    0.00082161    0.00000000
     atom    9 type  3   force =     0.00088086    0.00151583    0.00389003
     atom   10 type  3   force =     0.00319094   -0.00241067    0.00127349
     atom   11 type  3   force =    -0.00319094   -0.00241067   -0.00127349
     atom   12 type  3   force =    -0.00088086    0.00151583   -0.00389003
     atom   13 type  3   force =    -0.00318750    0.00147673    0.00333137
     atom   14 type  3   force =     0.00318750    0.00147673   -0.00333137
     atom   15 type  3   force =     0.00087598    0.00147961    0.00392685
     atom   16 type  3   force =     0.00316332   -0.00236041    0.00125263
     atom   17 type  3   force =    -0.00316332   -0.00236041   -0.00125263
     atom   18 type  3   force =    -0.00087598    0.00147961   -0.00392685
     atom   19 type  3   force =    -0.00313139    0.00151721    0.00332941
     atom   20 type  3   force =     0.00313139    0.00151721   -0.00332941

     Total force =     0.015700     Total SCF correction =     0.000330

     Computing stress (Cartesian axis) and pressure

          total   stress  (Ry/bohr**3)                   (kbar)     P=       -4.38
  -0.00003291   0.00000000   0.00000130           -4.84        0.00        0.19
   0.00000000  -0.00003442   0.00000000            0.00       -5.06        0.00
   0.00000130   0.00000000  -0.00002193            0.19        0.00       -3.23

     Writing output data file ./pwscf.save/

     General routines

     Parallel routines

   This run was terminated on:  17:27:24   2Aug2021

   JOB DONE.