     Program PWSCF v.6.7MaX starts on  2Aug2021 at 17:33: 4

     K-points division:     npool     =       2
     R & G space division:  proc/nbgrp/npool/nimage =      24
     Waiting for input...
     Reading input from standard input
Warning: card &CELL ignored
Warning: card CELL_DYNAMICS             = 'BFGS', ignored
Warning: card PRESS                     = '0.0', ignored
Warning: card PRESS_CONV_THR            = '0.5', ignored
Warning: card / ignored
     Message from routine read_cards :
     DEPRECATED: no units specified in CELL_PARAMETERS card

     Current dimensions of program PWSCF are:
     Max number of different atomic species (ntypx) = 10
     Max number of k-points (npk) =  40000
     Max angular momentum in pseudopotentials (lmaxx) =  3
     Message from routine cell_base_init:
     DEPRECATED: use true lattice parameter, not A to a.u. conversion factor
 end of file reached, closing tag not found
     file Er.pbe-spdn-kjpaw_psl.1.0.0.UPF: wavefunction(s)  6S 5D renormalized
     file Br.pbe-dn-kjpaw_psl.1.0.0.UPF: wavefunction(s)  4S 4P 3D renormalized

     Subspace diagonalization in iterative solution of the eigenvalue problem:
     a serial algorithm will be used

     Found symmetry operation: I + ( -0.5000 -0.5000  0.0000)
     This is a supercell, fractional translations are disabled
     Message from routine setup:
     using ibrav=0 with symmetry is DISCOURAGED, use correct ibrav instead

     bravais-lattice index     =            0
     lattice parameter (alat)  =       1.8897  a.u.
     unit-cell volume          =    3688.3023 (a.u.)^3
     number of atoms/cell      =           20
     number of atomic types    =            3
     number of electrons       =       244.00
     number of Kohn-Sham states=          146
     kinetic-energy cutoff     =     100.0000  Ry
     charge density cutoff     =     500.0000  Ry
     scf convergence threshold =      1.0E-08
     mixing beta               =       0.4000
     number of iterations used =            8  plain     mixing
     Exchange-correlation= SLA  PW   PBX  PBC
                           (   1   4   3   4   0   0   0)

     celldm(1)=   1.889726  celldm(2)=   0.000000  celldm(3)=   0.000000
     celldm(4)=   0.000000  celldm(5)=   0.000000  celldm(6)=   0.000000

     crystal axes: (cart. coord. in units of alat)
               a(1) = (   6.967356   0.000000   0.000000 )
               a(2) = (   0.000000  11.998880   0.000000 )
               a(3) = (  -2.324723   0.000000   6.537643 )

     reciprocal axes: (cart. coord. in units 2 pi/alat)
               b(1) = (  0.143526  0.000000  0.051037 )
               b(2) = (  0.000000  0.083341  0.000000 )
               b(3) = (  0.000000  0.000000  0.152960 )

     PseudoPot. # 1 for Li read from file:
     /central/groups/SeeGroup/qe_pseudopotentials/Li.pbe-s-kjpaw_psl.1.0.0.UPF
     MD5 check sum: cc502796ee09d8b62ac346ee26e59beb
     Pseudo is Projector augmented-wave, Zval =  3.0
     Generated using &quot;atomic&quot; code by A. Dal Corso  v.6.3
     Shape of augmentation charge: PSQ
     Using radial grid of 1017 points,  4 beta functions with:
                l(1) =   0
                l(2) =   0
                l(3) =   1
                l(4) =   1
     Q(r) pseudized with 0 coefficients

     PseudoPot. # 2 for Er read from file:
     /central/groups/SeeGroup/qe_pseudopotentials/Er.pbe-spdn-kjpaw_psl.1.0.0.UPF
     MD5 check sum: a923254af2aef992cff3e18bc73f2922
     Pseudo is Projector augmented-wave + core cor, Zval = 11.0
     Generated using &quot;atomic&quot; code by A. Dal Corso  v.6.2.2
     Shape of augmentation charge: PSQ
     Using radial grid of 1267 points,  6 beta functions with:
                l(1) =   0
                l(2) =   0
                l(3) =   1
                l(4) =   1
                l(5) =   2
                l(6) =   2
     Q(r) pseudized with 0 coefficients

     PseudoPot. # 3 for Br read from file:
     /central/groups/SeeGroup/qe_pseudopotentials/Br.pbe-dn-kjpaw_psl.1.0.0.UPF
     MD5 check sum: 4ca4ebabfd6065c7bb707b2ebe99e9b3
     Pseudo is Projector augmented-wave + core cor, Zval = 17.0
     Generated using &quot;atomic&quot; code by A. Dal Corso  v.6.3
     Shape of augmentation charge: PSQ
     Using radial grid of 1213 points,  6 beta functions with:
                l(1) =   0
                l(2) =   0
                l(3) =   1
                l(4) =   1
                l(5) =   2
                l(6) =   2
     Q(r) pseudized with 0 coefficients

     atomic species   valence    mass     pseudopotential
        Li             3.00     6.94100     Li( 1.00)
        Er            11.00   167.25900     Er( 1.00)
        Br            17.00    79.90400     Br( 1.00)

      2 Sym. Ops. (no inversion) found

   Cartesian axes

     site n.     atom                  positions (alat units)
         1           Li  tau(   1) = (   3.4836780   9.9564306   0.0000000  )
         2           Li  tau(   2) = (   3.4836780   2.0173957   0.0000000  )
         3           Li  tau(   3) = (   2.3213165   7.8846440   3.2688215  )
         4           Li  tau(   4) = (   0.0000000   3.9569906   0.0000000  )
         5           Li  tau(   5) = (   0.0000000   8.0168357   0.0000000  )
         6           Li  tau(   6) = (  -1.1623615   1.8852040   3.2688215  )
         7           Er  tau(   7) = (   3.4836780   5.9699947   0.0000000  )
         8           Er  tau(   8) = (   0.0000000  11.9694347   0.0000000  )
         9           Br  tau(   9) = (   3.4471523   9.9581465   5.0158758  )
        10           Br  tau(  10) = (   3.5847273   1.9854607   4.9258002  )
        11           Br  tau(  11) = (   1.0579057   1.9854607   1.6118428  )
        12           Br  tau(  12) = (   1.1954807   9.9581465   1.5217672  )
        13           Br  tau(  13) = (  -0.0150075   0.0698395   4.9769442  )
        14           Br  tau(  14) = (   4.6576405   0.0698395   1.5606988  )
        15           Br  tau(  15) = (  -0.0365257   3.9587065   5.0158758  )
        16           Br  tau(  16) = (   0.1010493   7.9849007   4.9258002  )
        17           Br  tau(  17) = (   4.5415837   7.9849007   1.6118428  )
        18           Br  tau(  18) = (   4.6791587   3.9587065   1.5217672  )
        19           Br  tau(  19) = (   3.4686705   6.0692795   4.9769442  )
        20           Br  tau(  20) = (   1.1739625   6.0692795   1.5606988  )

     number of k points=    40  Fermi-Dirac smearing, width (Ry)=  0.0070
                       cart. coord. in units 2pi/alat
        k(    1) = (   0.0000000   0.0000000   0.0000000), wk =   0.0185185
        k(    2) = (   0.0000000   0.0000000   0.0254934), wk =   0.0370370
        k(    3) = (   0.0000000   0.0000000   0.0509868), wk =   0.0370370
        k(    4) = (   0.0000000   0.0000000  -0.0764802), wk =   0.0185185
        k(    5) = (   0.0000000   0.0277804   0.0000000), wk =   0.0370370
        k(    6) = (   0.0000000   0.0277804   0.0254934), wk =   0.0740741
        k(    7) = (   0.0000000   0.0277804   0.0509868), wk =   0.0740741
        k(    8) = (   0.0000000   0.0277804  -0.0764802), wk =   0.0370370
        k(    9) = (   0.0239211   0.0000000   0.0085061), wk =   0.0370370
        k(   10) = (   0.0239211   0.0000000   0.0339995), wk =   0.0370370
        k(   11) = (   0.0239211   0.0000000   0.0594929), wk =   0.0370370
        k(   12) = (   0.0239211   0.0000000  -0.0679741), wk =   0.0370370
        k(   13) = (   0.0239211   0.0000000  -0.0424807), wk =   0.0370370
        k(   14) = (   0.0239211   0.0000000  -0.0169873), wk =   0.0370370
        k(   15) = (   0.0239211   0.0277804   0.0085061), wk =   0.0740741
        k(   16) = (   0.0239211   0.0277804   0.0339995), wk =   0.0740741
        k(   17) = (   0.0239211   0.0277804   0.0594929), wk =   0.0740741
        k(   18) = (   0.0239211   0.0277804  -0.0679741), wk =   0.0740741
        k(   19) = (   0.0239211   0.0277804  -0.0424807), wk =   0.0740741
        k(   20) = (   0.0239211   0.0277804  -0.0169873), wk =   0.0740741
        k(   21) = (   0.0478422   0.0000000   0.0170122), wk =   0.0370370
        k(   22) = (   0.0478422   0.0000000   0.0425056), wk =   0.0370370
        k(   23) = (   0.0478422   0.0000000   0.0679990), wk =   0.0370370
        k(   24) = (   0.0478422   0.0000000  -0.0594680), wk =   0.0370370
        k(   25) = (   0.0478422   0.0000000  -0.0339746), wk =   0.0370370
        k(   26) = (   0.0478422   0.0000000  -0.0084812), wk =   0.0370370
        k(   27) = (   0.0478422   0.0277804   0.0170122), wk =   0.0740741
        k(   28) = (   0.0478422   0.0277804   0.0425056), wk =   0.0740741
        k(   29) = (   0.0478422   0.0277804   0.0679990), wk =   0.0740741
        k(   30) = (   0.0478422   0.0277804  -0.0594680), wk =   0.0740741
        k(   31) = (   0.0478422   0.0277804  -0.0339746), wk =   0.0740741
        k(   32) = (   0.0478422   0.0277804  -0.0084812), wk =   0.0740741
        k(   33) = (  -0.0717632   0.0000000  -0.0255183), wk =   0.0185185
        k(   34) = (  -0.0717632   0.0000000  -0.0000249), wk =   0.0370370
        k(   35) = (  -0.0717632   0.0000000   0.0254685), wk =   0.0370370
        k(   36) = (  -0.0717632   0.0000000  -0.1019985), wk =   0.0185185
        k(   37) = (  -0.0717632   0.0277804  -0.0255183), wk =   0.0370370
        k(   38) = (  -0.0717632   0.0277804  -0.0000249), wk =   0.0740741
        k(   39) = (  -0.0717632   0.0277804   0.0254685), wk =   0.0740741
        k(   40) = (  -0.0717632   0.0277804  -0.1019985), wk =   0.0370370

     Initial potential from superposition of free atoms

     starting charge  243.93496, renormalised to  244.00000
     Starting wfcs are  164 randomized atomic wfcs
     Checking if some PAW data can be deallocated...

     Self-consistent Calculation

     iteration #  1     ecut=   100.00 Ry     beta= 0.40
     Davidson diagonalization with overlap
     ethr =  1.00E-02,  avg # of iterations =  5.3

     Threshold (ethr) on eigenvalues was too large:
     Diagonalizing with lowered threshold

     Davidson diagonalization with overlap
     ethr =  1.17E-04,  avg # of iterations =  9.7

     total energy              =   -6740.52452679 Ry
     estimated scf accuracy    <       0.28225370 Ry

[...]

     iteration #  4     ecut=   100.00 Ry     beta= 0.40
     Davidson diagonalization with overlap
     c_bands:  1 eigenvalues not converged
     c_bands:  1 eigenvalues not converged
     ethr =  2.27E-06,  avg # of iterations =  9.6

[...]

     total energy              =   -6740.55643873 Ry
     estimated scf accuracy    <       0.00000012 Ry

     iteration #  9     ecut=   100.00 Ry     beta= 0.40
     Davidson diagonalization with overlap
     ethr =  4.82E-11,  avg # of iterations =  2.0

     End of self-consistent calculation

          k = 0.0000 0.0000 0.0000 ( 62259 PWs)   bands (ev):

   -56.2784 -56.2784 -56.2784 -56.2784 -56.2755 -56.2755 -56.2755 -56.2755
   -56.2607 -56.2607 -56.2607 -56.2607 -56.2556 -56.2556 -56.2555 -56.2555
   -56.2531 -56.2531 -56.2531 -56.2531 -56.2395 -56.2395 -56.2395 -56.2395
   -56.2274 -56.2274 -56.2274 -56.2274 -56.2237 -56.2237 -56.2237 -56.2237
   -56.2127 -56.2127 -56.2127 -56.2127 -56.2098 -56.2098 -56.2098 -56.2098
   -56.1945 -56.1945 -56.1945 -56.1945 -56.1935 -56.1935 -56.1935 -56.1935
   -56.1927 -56.1926 -56.1926 -56.1926 -56.1865 -56.1865 -56.1865 -56.1865
   -56.1836 -56.1836 -56.1835 -56.1835 -46.9320 -46.9320 -42.0671 -42.0671
   -41.7985 -41.7985 -41.7701 -41.7700 -20.7600 -20.7599 -20.7546 -20.7546
   -20.7545 -20.7543 -10.7220 -10.5410 -10.3950 -10.2885 -10.2787 -10.2694
   -10.2368 -10.2321 -10.2246 -10.1602 -10.1548 -10.1290  -0.1685  -0.1594
     0.2178   0.2441   0.2632   0.4074   0.4548   0.6220   0.6721   0.7409
     0.8620   0.8622   0.8729   0.9981   1.1249   1.2409   1.2640   1.2676
     1.2727   1.4826   1.5251   1.6949   1.7400   1.9378   1.9803   2.0166
     2.0551   2.0728   2.1869   2.2404   2.3320   2.4620   2.5278   2.5280
     2.5728   2.5790   7.0472   7.3027   7.4451   7.4652   7.4668   7.5185
     7.5473   8.7247   8.7423   8.8087   9.1067   9.1638   9.3652   9.3989
     9.4759   9.7239   9.9172  10.3106  10.3252  10.3770  10.6701  10.8571
    10.9490  11.1005

[...]

          k = 0.0478 0.0278-0.0085 ( 62289 PWs)   bands (ev):

[...]

          k =-0.0718 0.0000-0.0255 ( 62286 PWs)   bands (ev):

[...]

          k =-0.0718 0.0278-0.1020 ( 62292 PWs)   bands (ev):

   -56.2784 -56.2784 -56.2784 -56.2784 -56.2755 -56.2755 -56.2755 -56.2755
   -56.2607 -56.2607 -56.2607 -56.2607 -56.2556 -56.2556 -56.2555 -56.2555
   -56.2531 -56.2531 -56.2531 -56.2531 -56.2395 -56.2395 -56.2395 -56.2395
   -56.2274 -56.2274 -56.2274 -56.2274 -56.2237 -56.2237 -56.2237 -56.2237
   -56.2127 -56.2127 -56.2127 -56.2127 -56.2098 -56.2098 -56.2098 -56.2098
   -56.1945 -56.1945 -56.1945 -56.1945 -56.1935 -56.1935 -56.1935 -56.1935
   -56.1927 -56.1927 -56.1926 -56.1926 -56.1865 -56.1865 -56.1865 -56.1865
   -56.1836 -56.1836 -56.1835 -56.1835 -46.9320 -46.9320 -42.0671 -42.0671
   -41.7985 -41.7985 -41.7701 -41.7701 -20.7600 -20.7600 -20.7548 -20.7548
   -20.7545 -20.7544 -10.4704 -10.4703 -10.3790 -10.3790 -10.3258 -10.3258
   -10.2556 -10.2556 -10.2198 -10.2198 -10.1821 -10.1821  -0.1818  -0.1818
     0.2415   0.2415   0.3274   0.3274   0.4636   0.4636   0.6650   0.6650
     0.9194   0.9194   1.1424   1.1425   1.2271   1.2271   1.5265   1.5265
     1.5989   1.5989   1.6905   1.6905   1.7307   1.7307   1.9485   1.9485
     2.1043   2.1044   2.1243   2.1243   2.2719   2.2719   2.3053   2.3053
     2.3954   2.3954   7.0504   7.0504   7.2900   7.2900   7.3344   7.3344
     8.6812   8.6812   8.8071   8.8071   9.1697   9.1697   9.2707   9.2707
     9.6715   9.6715  10.0968  10.0969  10.4073  10.4073  10.6390  10.6390
    10.9288  10.9288

     the Fermi energy is     4.8499 ev

!    total energy              =   -6740.55643876 Ry

     total all-electron energy =   -114993.572397 Ry
     estimated scf accuracy    <          9.7E-09 Ry
     smearing contrib. (-TS)   =      -0.00000000 Ry
     internal energy E=F+TS    =   -6740.55643876 Ry

     The total energy is F=E-TS. E is the sum of the following terms:
     one-electron contribution =   -3515.74977517 Ry
     hartree contribution      =    1687.82987403 Ry
     xc contribution           =    -503.20527301 Ry
     ewald contribution        =   -1690.68325647 Ry
     one-center paw contrib.   =   -2718.74800814 Ry

     convergence has been achieved in   9 iterations

     Forces acting on atoms (cartesian axes, Ry/au):

     atom    1 type  1   force =     0.00000000   -0.00206694    0.00000000
     atom    2 type  1   force =     0.00000000    0.00041379    0.00000000
     atom    3 type  1   force =     0.00000000   -0.00039873    0.00000000
     atom    4 type  1   force =     0.00000000   -0.00206349    0.00000000
     atom    5 type  1   force =     0.00000000    0.00041766    0.00000000
     atom    6 type  1   force =     0.00000000   -0.00039986    0.00000000
     atom    7 type  2   force =     0.00000000    0.00081115    0.00000000
     atom    8 type  2   force =     0.00000000    0.00081439    0.00000000
     atom    9 type  3   force =     0.00085872    0.00148383    0.00388053
     atom   10 type  3   force =     0.00317661   -0.00237158    0.00127110
     atom   11 type  3   force =    -0.00317661   -0.00237158   -0.00127110
     atom   12 type  3   force =    -0.00085872    0.00148383   -0.00388053
     atom   13 type  3   force =    -0.00316833    0.00148771    0.00334201
     atom   14 type  3   force =     0.00316833    0.00148771   -0.00334201
     atom   15 type  3   force =     0.00089111    0.00149056    0.00394294
     atom   16 type  3   force =     0.00317471   -0.00236872    0.00128911
     atom   17 type  3   force =    -0.00317471   -0.00236872   -0.00128911
     atom   18 type  3   force =    -0.00089111    0.00149056   -0.00394294
     atom   19 type  3   force =    -0.00313215    0.00151422    0.00335819
     atom   20 type  3   force =     0.00313215    0.00151422   -0.00335819

     Total force =     0.015704     Total SCF correction =     0.000319

     Computing stress (Cartesian axis) and pressure

          total   stress  (Ry/bohr**3)                   (kbar)     P=       -4.95
  -0.00003673   0.00000000   0.00000130           -5.40        0.00        0.19
   0.00000000  -0.00003834   0.00000000            0.00       -5.64        0.00
   0.00000130   0.00000000  -0.00002577            0.19        0.00       -3.79

     Writing output data file ./pwscf.save/

     General routines

     Parallel routines

   This run was terminated on:  17:44: 7   2Aug2021

   JOB DONE.