     Program PWSCF v.6.7MaX starts on  2Aug2021 at 17:20:56

     K-points division:     npool     =       2
     R & G space division:  proc/nbgrp/npool/nimage =      24
     Waiting for input...
     Reading input from standard input
Warning: card &CELL ignored
Warning: card CELL_DYNAMICS             = 'BFGS', ignored
Warning: card PRESS                     = '0.0', ignored
Warning: card PRESS_CONV_THR            = '0.5', ignored
Warning: card / ignored
     Message from routine read_cards :
     DEPRECATED: no units specified in CELL_PARAMETERS card

     Current dimensions of program PWSCF are:
     Max number of different atomic species (ntypx) = 10
     Max number of k-points (npk) =  40000
     Max angular momentum in pseudopotentials (lmaxx) =  3
     Message from routine cell_base_init:
     DEPRECATED: use true lattice parameter, not A to a.u. conversion factor
 end of file reached, closing tag not found
     file Er.pbe-spdn-kjpaw_psl.1.0.0.UPF: wavefunction(s)  6S 5D renormalized
     file Br.pbe-dn-kjpaw_psl.1.0.0.UPF: wavefunction(s)  4S 4P 3D renormalized

     Subspace diagonalization in iterative solution of the eigenvalue problem:
     a serial algorithm will be used

     Found symmetry operation: I + ( -0.5000 -0.5000  0.0000)
     This is a supercell, fractional translations are disabled
     Message from routine setup:
     using ibrav=0 with symmetry is DISCOURAGED, use correct ibrav instead

     bravais-lattice index     =            0
     lattice parameter (alat)  =       1.8897  a.u.
     unit-cell volume          =    3688.3023 (a.u.)^3
     number of atoms/cell      =           20
     number of atomic types    =            3
     number of electrons       =       244.00
     number of Kohn-Sham states=          146
     kinetic-energy cutoff     =      80.0000  Ry
     charge density cutoff     =     400.0000  Ry
     scf convergence threshold =      1.0E-08
     mixing beta               =       0.4000
     number of iterations used =            8  plain     mixing
     Exchange-correlation= SLA  PW   PBX  PBC
                           (   1   4   3   4   0   0   0)

     celldm(1)=   1.889726  celldm(2)=   0.000000  celldm(3)=   0.000000
     celldm(4)=   0.000000  celldm(5)=   0.000000  celldm(6)=   0.000000

     crystal axes: (cart. coord. in units of alat)
               a(1) = (   6.967356   0.000000   0.000000 )
               a(2) = (   0.000000  11.998880   0.000000 )
               a(3) = (  -2.324723   0.000000   6.537643 )

     reciprocal axes: (cart. coord. in units 2 pi/alat)
               b(1) = (  0.143526  0.000000  0.051037 )
               b(2) = (  0.000000  0.083341  0.000000 )
               b(3) = (  0.000000  0.000000  0.152960 )

     PseudoPot. # 1 for Li read from file:
     /central/groups/SeeGroup/qe_pseudopotentials/Li.pbe-s-kjpaw_psl.1.0.0.UPF
     MD5 check sum: cc502796ee09d8b62ac346ee26e59beb
     Pseudo is Projector augmented-wave, Zval =  3.0
     Generated using &quot;atomic&quot; code by A. Dal Corso  v.6.3
     Shape of augmentation charge: PSQ
     Using radial grid of 1017 points,  4 beta functions with:
                l(1) =   0
                l(2) =   0
                l(3) =   1
                l(4) =   1
     Q(r) pseudized with 0 coefficients

     PseudoPot. # 2 for Er read from file:
     /central/groups/SeeGroup/qe_pseudopotentials/Er.pbe-spdn-kjpaw_psl.1.0.0.UPF
     MD5 check sum: a923254af2aef992cff3e18bc73f2922
     Pseudo is Projector augmented-wave + core cor, Zval = 11.0
     Generated using &quot;atomic&quot; code by A. Dal Corso  v.6.2.2
     Shape of augmentation charge: PSQ
     Using radial grid of 1267 points,  6 beta functions with:
                l(1) =   0
                l(2) =   0
                l(3) =   1
                l(4) =   1
                l(5) =   2
                l(6) =   2
     Q(r) pseudized with 0 coefficients

     PseudoPot. # 3 for Br read from file:
     /central/groups/SeeGroup/qe_pseudopotentials/Br.pbe-dn-kjpaw_psl.1.0.0.UPF
     MD5 check sum: 4ca4ebabfd6065c7bb707b2ebe99e9b3
     Pseudo is Projector augmented-wave + core cor, Zval = 17.0
     Generated using &quot;atomic&quot; code by A. Dal Corso  v.6.3
     Shape of augmentation charge: PSQ
     Using radial grid of 1213 points,  6 beta functions with:
                l(1) =   0
                l(2) =   0
                l(3) =   1
                l(4) =   1
                l(5) =   2
                l(6) =   2
     Q(r) pseudized with 0 coefficients

     atomic species   valence    mass     pseudopotential
        Li             3.00     6.94100     Li( 1.00)
        Er            11.00   167.25900     Er( 1.00)
        Br            17.00    79.90400     Br( 1.00)

      2 Sym. Ops. (no inversion) found

   Cartesian axes

     site n.     atom                  positions (alat units)
         1           Li  tau(   1) = (   3.4836780   9.9564306   0.0000000  )
         2           Li  tau(   2) = (   3.4836780   2.0173957   0.0000000  )
         3           Li  tau(   3) = (   2.3213165   7.8846440   3.2688215  )
         4           Li  tau(   4) = (   0.0000000   3.9569906   0.0000000  )
         5           Li  tau(   5) = (   0.0000000   8.0168357   0.0000000  )
         6           Li  tau(   6) = (  -1.1623615   1.8852040   3.2688215  )
         7           Er  tau(   7) = (   3.4836780   5.9699947   0.0000000  )
         8           Er  tau(   8) = (   0.0000000  11.9694347   0.0000000  )
         9           Br  tau(   9) = (   3.4471523   9.9581465   5.0158758  )
        10           Br  tau(  10) = (   3.5847273   1.9854607   4.9258002  )
        11           Br  tau(  11) = (   1.0579057   1.9854607   1.6118428  )
        12           Br  tau(  12) = (   1.1954807   9.9581465   1.5217672  )
        13           Br  tau(  13) = (  -0.0150075   0.0698395   4.9769442  )
        14           Br  tau(  14) = (   4.6576405   0.0698395   1.5606988  )
        15           Br  tau(  15) = (  -0.0365257   3.9587065   5.0158758  )
        16           Br  tau(  16) = (   0.1010493   7.9849007   4.9258002  )
        17           Br  tau(  17) = (   4.5415837   7.9849007   1.6118428  )
        18           Br  tau(  18) = (   4.6791587   3.9587065   1.5217672  )
        19           Br  tau(  19) = (   3.4686705   6.0692795   4.9769442  )
        20           Br  tau(  20) = (   1.1739625   6.0692795   1.5606988  )

     number of k points=    20  Fermi-Dirac smearing, width (Ry)=  0.0070
                       cart. coord. in units 2pi/alat
        k(    1) = (   0.0000000   0.0000000   0.0000000), wk =   0.0625000
        k(    2) = (   0.0000000   0.0000000   0.0382401), wk =   0.1250000
        k(    3) = (   0.0000000   0.0000000  -0.0764802), wk =   0.0625000
        k(    4) = (   0.0000000  -0.0416706   0.0000000), wk =   0.0625000
        k(    5) = (   0.0000000  -0.0416706   0.0382401), wk =   0.1250000
        k(    6) = (   0.0000000  -0.0416706  -0.0764802), wk =   0.0625000
        k(    7) = (   0.0358816   0.0000000   0.0127592), wk =   0.1250000
        k(    8) = (   0.0358816   0.0000000   0.0509992), wk =   0.1250000
        k(    9) = (   0.0358816   0.0000000  -0.0637210), wk =   0.1250000
        k(   10) = (   0.0358816   0.0000000  -0.0254809), wk =   0.1250000
        k(   11) = (   0.0358816  -0.0416706   0.0127592), wk =   0.1250000
        k(   12) = (   0.0358816  -0.0416706   0.0509992), wk =   0.1250000
        k(   13) = (   0.0358816  -0.0416706  -0.0637210), wk =   0.1250000
        k(   14) = (   0.0358816  -0.0416706  -0.0254809), wk =   0.1250000
        k(   15) = (  -0.0717632   0.0000000  -0.0255183), wk =   0.0625000
        k(   16) = (  -0.0717632   0.0000000   0.0127218), wk =   0.1250000
        k(   17) = (  -0.0717632   0.0000000  -0.1019985), wk =   0.0625000
        k(   18) = (  -0.0717632  -0.0416706  -0.0255183), wk =   0.0625000
        k(   19) = (  -0.0717632  -0.0416706   0.0127218), wk =   0.1250000
        k(   20) = (  -0.0717632  -0.0416706  -0.1019985), wk =   0.0625000

     Initial potential from superposition of free atoms

     starting charge  243.93496, renormalised to  244.00000
     Starting wfcs are  164 randomized atomic wfcs
     Checking if some PAW data can be deallocated...

     Self-consistent Calculation

     iteration #  1     ecut=    80.00 Ry     beta= 0.40
     Davidson diagonalization with overlap
     ethr =  1.00E-02,  avg # of iterations =  5.1

     Threshold (ethr) on eigenvalues was too large:
     Diagonalizing with lowered threshold

     Davidson diagonalization with overlap
     ethr =  1.16E-04,  avg # of iterations =  9.1

     total energy              =   -6740.51663769 Ry
     estimated scf accuracy    <       0.28203706 Ry

[...]

     total energy              =   -6740.54840619 Ry
     estimated scf accuracy    <       0.00000012 Ry

     iteration #  9     ecut=    80.00 Ry     beta= 0.40
     Davidson diagonalization with overlap
     ethr =  4.98E-11,  avg # of iterations =  2.0

     End of self-consistent calculation

          k = 0.0000 0.0000 0.0000 ( 44625 PWs)   bands (ev):

   -56.2780 -56.2780 -56.2780 -56.2779 -56.2751 -56.2751 -56.2750 -56.2750
   -56.2603 -56.2603 -56.2602 -56.2602 -56.2551 -56.2551 -56.2551 -56.2550
   -56.2527 -56.2527 -56.2527 -56.2526 -56.2393 -56.2392 -56.2392 -56.2392
   -56.2272 -56.2271 -56.2271 -56.2271 -56.2235 -56.2235 -56.2235 -56.2235
   -56.2124 -56.2124 -56.2124 -56.2124 -56.2095 -56.2095 -56.2095 -56.2095
   -56.1943 -56.1942 -56.1942 -56.1942 -56.1933 -56.1933 -56.1933 -56.1933
   -56.1923 -56.1923 -56.1923 -56.1923 -56.1862 -56.1862 -56.1862 -56.1862
   -56.1832 -56.1832 -56.1832 -56.1832 -46.9314 -46.9314 -42.0575 -42.0575
   -41.7891 -41.7891 -41.7606 -41.7606 -20.7595 -20.7595 -20.7542 -20.7541
   -20.7541 -20.7539 -10.7217 -10.5407 -10.3947 -10.2883 -10.2785 -10.2692
   -10.2366 -10.2319 -10.2244 -10.1600 -10.1546 -10.1288  -0.1679  -0.1589
     0.2184   0.2447   0.2635   0.4077   0.4553   0.6223   0.6727   0.7415
     0.8625   0.8628   0.8733   0.9984   1.1254   1.2414   1.2643   1.2680
     1.2732   1.4829   1.5254   1.6952   1.7403   1.9382   1.9806   2.0170
     2.0554   2.0731   2.1872   2.2407   2.3323   2.4623   2.5282   2.5283
     2.5731   2.5793   7.0476   7.3039   7.4454   7.4663   7.4672   7.5188
     7.5481   8.7251   8.7445   8.8090   9.1082   9.1643   9.3655   9.3992
     9.4783   9.7253   9.9188  10.3126  10.3258  10.3776  10.6747  10.8622
    10.9496  11.1012

[...]

          k = 0.0359-0.0417-0.0255 ( 44560 PWs)   bands (ev):

[...]

          k =-0.0718 0.0000-0.0255 ( 44568 PWs)   bands (ev):

[...]

          k =-0.0718-0.0417-0.1020 ( 44544 PWs)   bands (ev):

   -56.2780 -56.2780 -56.2779 -56.2779 -56.2751 -56.2750 -56.2750 -56.2750
   -56.2603 -56.2603 -56.2602 -56.2602 -56.2551 -56.2551 -56.2550 -56.2550
   -56.2527 -56.2527 -56.2526 -56.2526 -56.2392 -56.2392 -56.2392 -56.2392
   -56.2271 -56.2271 -56.2271 -56.2271 -56.2235 -56.2235 -56.2235 -56.2235
   -56.2124 -56.2124 -56.2124 -56.2124 -56.2095 -56.2095 -56.2094 -56.2094
   -56.1943 -56.1942 -56.1942 -56.1942 -56.1932 -56.1932 -56.1932 -56.1932
   -56.1923 -56.1923 -56.1923 -56.1922 -56.1861 -56.1861 -56.1861 -56.1861
   -56.1832 -56.1832 -56.1832 -56.1832 -46.9314 -46.9314 -42.0575 -42.0575
   -41.7891 -41.7890 -41.7606 -41.7606 -20.7595 -20.7595 -20.7543 -20.7543
   -20.7540 -20.7540 -10.4658 -10.4658 -10.3869 -10.3869 -10.3269 -10.3268
   -10.2489 -10.2489 -10.2164 -10.2164 -10.1863 -10.1863  -0.2054  -0.2054
     0.2429   0.2429   0.3307   0.3307   0.4938   0.4938   0.6863   0.6863
     0.9561   0.9561   1.1120   1.1120   1.2149   1.2149   1.5201   1.5201
     1.5489   1.5489   1.6825   1.6825   1.7404   1.7404   1.9842   1.9842
     2.1135   2.1135   2.1360   2.1360   2.2728   2.2728   2.3064   2.3064
     2.3670   2.3670   7.0317   7.0317   7.3000   7.3001   7.3558   7.3558
     8.6875   8.6875   8.7801   8.7801   9.1481   9.1481   9.2498   9.2498
     9.7502   9.7502  10.1602  10.1602  10.6151  10.6151  10.7757  10.7757
    10.8722  10.8722

     the Fermi energy is     4.8562 ev

!    total energy              =   -6740.54840622 Ry

     total all-electron energy =   -114993.564364 Ry
     estimated scf accuracy    <          8.2E-09 Ry
     smearing contrib. (-TS)   =      -0.00000000 Ry
     internal energy E=F+TS    =   -6740.54840622 Ry

     The total energy is F=E-TS. E is the sum of the following terms:
     one-electron contribution =   -3515.74960729 Ry
     hartree contribution      =    1687.86994725 Ry
     xc contribution           =    -503.21621451 Ry
     ewald contribution        =   -1690.68325647 Ry
     one-center paw contrib.   =   -2718.76927521 Ry

     convergence has been achieved in   9 iterations

     Forces acting on atoms (cartesian axes, Ry/au):

     atom    1 type  1   force =     0.00000000   -0.00204528    0.00000000
     atom    2 type  1   force =     0.00000000    0.00041130    0.00000000
     atom    3 type  1   force =     0.00000000   -0.00038020    0.00000000
     atom    4 type  1   force =     0.00000000   -0.00204275    0.00000000
     atom    5 type  1   force =     0.00000000    0.00041576    0.00000000
     atom    6 type  1   force =     0.00000000   -0.00038244    0.00000000
     atom    7 type  2   force =     0.00000000    0.00081784    0.00000000
     atom    8 type  2   force =     0.00000000    0.00082265    0.00000000
     atom    9 type  3   force =     0.00088593    0.00154598    0.00386104
     atom   10 type  3   force =     0.00317903   -0.00243055    0.00128558
     atom   11 type  3   force =    -0.00317903   -0.00243055   -0.00128558
     atom   12 type  3   force =    -0.00088593    0.00154598   -0.00386104
     atom   13 type  3   force =    -0.00318046    0.00144708    0.00333650
     atom   14 type  3   force =     0.00318046    0.00144708   -0.00333650
     atom   15 type  3   force =     0.00090553    0.00153014    0.00392129
     atom   16 type  3   force =     0.00316342   -0.00239220    0.00128818
     atom   17 type  3   force =    -0.00316342   -0.00239220   -0.00128818
     atom   18 type  3   force =    -0.00090553    0.00153014   -0.00392129
     atom   19 type  3   force =    -0.00313480    0.00149111    0.00335472
     atom   20 type  3   force =     0.00313480    0.00149111   -0.00335472

     Total force =     0.015716     Total SCF correction =     0.000318

     Computing stress (Cartesian axis) and pressure

          total   stress  (Ry/bohr**3)                   (kbar)     P=       -7.50
  -0.00005416   0.00000000   0.00000130           -7.97        0.00        0.19
   0.00000000  -0.00005561   0.00000000            0.00       -8.18        0.00
   0.00000130   0.00000000  -0.00004315            0.19        0.00       -6.35

     Writing output data file ./pwscf.save/

     General routines

     Parallel routines

   This run was terminated on:  17:23: 6   2Aug2021

   JOB DONE.