     Program PWSCF v.6.7MaX starts on 26Jul2021 at 14:31:42

     K-points division:     npool     =       2
     R & G space division:  proc/nbgrp/npool/nimage =      24
     Waiting for input...
     Reading input from standard input
Warning: card &CELL ignored
Warning: card CELL_DYNAMICS             = 'BFGS', ignored
Warning: card PRESS                     = '0.0', ignored
Warning: card PRESS_CONV_THR            = '0.5', ignored
Warning: card / ignored
     Message from routine read_cards :
     DEPRECATED: no units specified in CELL_PARAMETERS card

     Current dimensions of program PWSCF are:
     Max number of different atomic species (ntypx) = 10
     Max number of k-points (npk) =  40000
     Max angular momentum in pseudopotentials (lmaxx) =  3
     Message from routine cell_base_init:
     DEPRECATED: use true lattice parameter, not A to a.u. conversion factor
 end of file reached, closing tag not found
     file Er.pbe-spdn-kjpaw_psl.1.0.0.UPF: wavefunction(s)  6S 5D renormalized
     file Br.pbe-dn-kjpaw_psl.1.0.0.UPF: wavefunction(s)  4S 4P 3D renormalized

     Subspace diagonalization in iterative solution of the eigenvalue problem:
     a serial algorithm will be used

     Found symmetry operation: I + ( -0.5000 -0.5000  0.0000)
     This is a supercell, fractional translations are disabled
     Message from routine setup:
     using ibrav=0 with symmetry is DISCOURAGED, use correct ibrav instead

     bravais-lattice index     =            0
     lattice parameter (alat)  =       1.8897  a.u.
     unit-cell volume          =    3688.3023 (a.u.)^3
     number of atoms/cell      =           20
     number of atomic types    =            3
     number of electrons       =       244.00
     number of Kohn-Sham states=          146
     kinetic-energy cutoff     =      80.0000  Ry
     charge density cutoff     =     400.0000  Ry
     scf convergence threshold =      1.0E-08
     mixing beta               =       0.4000
     number of iterations used =            8  plain     mixing
     Exchange-correlation= SLA  PW   PBX  PBC
                           (   1   4   3   4   0   0   0)

     celldm(1)=   1.889726  celldm(2)=   0.000000  celldm(3)=   0.000000
     celldm(4)=   0.000000  celldm(5)=   0.000000  celldm(6)=   0.000000

     crystal axes: (cart. coord. in units of alat)
               a(1) = (   6.967356   0.000000   0.000000 )
               a(2) = (   0.000000  11.998880   0.000000 )
               a(3) = (  -2.324723   0.000000   6.537643 )

     reciprocal axes: (cart. coord. in units 2 pi/alat)
               b(1) = (  0.143526  0.000000  0.051037 )
               b(2) = (  0.000000  0.083341  0.000000 )
               b(3) = (  0.000000  0.000000  0.152960 )

     PseudoPot. # 1 for Li read from file:
     /central/groups/SeeGroup/qe_pseudopotentials/Li.pbe-s-kjpaw_psl.1.0.0.UPF
     MD5 check sum: cc502796ee09d8b62ac346ee26e59beb
     Pseudo is Projector augmented-wave, Zval =  3.0
     Generated using &quot;atomic&quot; code by A. Dal Corso  v.6.3
     Shape of augmentation charge: PSQ
     Using radial grid of 1017 points,  4 beta functions with:
                l(1) =   0
                l(2) =   0
                l(3) =   1
                l(4) =   1
     Q(r) pseudized with 0 coefficients

     PseudoPot. # 2 for Er read from file:
     /central/groups/SeeGroup/qe_pseudopotentials/Er.pbe-spdn-kjpaw_psl.1.0.0.UPF
     MD5 check sum: a923254af2aef992cff3e18bc73f2922
     Pseudo is Projector augmented-wave + core cor, Zval = 11.0
     Generated using &quot;atomic&quot; code by A. Dal Corso  v.6.2.2
     Shape of augmentation charge: PSQ
     Using radial grid of 1267 points,  6 beta functions with:
                l(1) =   0
                l(2) =   0
                l(3) =   1
                l(4) =   1
                l(5) =   2
                l(6) =   2
     Q(r) pseudized with 0 coefficients

     PseudoPot. # 3 for Br read from file:
     /central/groups/SeeGroup/qe_pseudopotentials/Br.pbe-dn-kjpaw_psl.1.0.0.UPF
     MD5 check sum: 4ca4ebabfd6065c7bb707b2ebe99e9b3
     Pseudo is Projector augmented-wave + core cor, Zval = 17.0
     Generated using &quot;atomic&quot; code by A. Dal Corso  v.6.3
     Shape of augmentation charge: PSQ
     Using radial grid of 1213 points,  6 beta functions with:
                l(1) =   0
                l(2) =   0
                l(3) =   1
                l(4) =   1
                l(5) =   2
                l(6) =   2
     Q(r) pseudized with 0 coefficients

     atomic species   valence    mass     pseudopotential
        Li             3.00     6.94100     Li( 1.00)
        Er            11.00   167.25900     Er( 1.00)
        Br            17.00    79.90400     Br( 1.00)

      2 Sym. Ops. (no inversion) found

   Cartesian axes

     site n.     atom                  positions (alat units)
         1           Li  tau(   1) = (   3.4836780   9.9564306   0.0000000  )
         2           Li  tau(   2) = (   3.4836780   2.0173957   0.0000000  )
         3           Li  tau(   3) = (   2.3213165   7.8846440   3.2688215  )
         4           Li  tau(   4) = (   0.0000000   3.9569906   0.0000000  )
         5           Li  tau(   5) = (   0.0000000   8.0168357   0.0000000  )
         6           Li  tau(   6) = (  -1.1623615   1.8852040   3.2688215  )
         7           Er  tau(   7) = (   3.4836780   5.9699947   0.0000000  )
         8           Er  tau(   8) = (   0.0000000  11.9694347   0.0000000  )
         9           Br  tau(   9) = (   3.4471523   9.9581465   5.0158758  )
        10           Br  tau(  10) = (   3.5847273   1.9854607   4.9258002  )
        11           Br  tau(  11) = (   1.0579057   1.9854607   1.6118428  )
        12           Br  tau(  12) = (   1.1954807   9.9581465   1.5217672  )
        13           Br  tau(  13) = (  -0.0150075   0.0698395   4.9769442  )
        14           Br  tau(  14) = (   4.6576405   0.0698395   1.5606988  )
        15           Br  tau(  15) = (  -0.0365257   3.9587065   5.0158758  )
        16           Br  tau(  16) = (   0.1010493   7.9849007   4.9258002  )
        17           Br  tau(  17) = (   4.5415837   7.9849007   1.6118428  )
        18           Br  tau(  18) = (   4.6791587   3.9587065   1.5217672  )
        19           Br  tau(  19) = (   3.4686705   6.0692795   4.9769442  )
        20           Br  tau(  20) = (   1.1739625   6.0692795   1.5606988  )

     number of k points=     8  Fermi-Dirac smearing, width (Ry)=  0.0070
                       cart. coord. in units 2pi/alat
        k(    1) = (   0.0000000   0.0000000   0.0000000), wk =   0.2500000
        k(    2) = (   0.0000000   0.0000000  -0.0764802), wk =   0.2500000
        k(    3) = (   0.0000000  -0.0416706   0.0000000), wk =   0.2500000
        k(    4) = (   0.0000000  -0.0416706  -0.0764802), wk =   0.2500000
        k(    5) = (  -0.0717632   0.0000000  -0.0255183), wk =   0.2500000
        k(    6) = (  -0.0717632   0.0000000  -0.1019985), wk =   0.2500000
        k(    7) = (  -0.0717632  -0.0416706  -0.0255183), wk =   0.2500000
        k(    8) = (  -0.0717632  -0.0416706  -0.1019985), wk =   0.2500000

     Initial potential from superposition of free atoms

     starting charge  243.93496, renormalised to  244.00000
     Starting wfcs are  164 randomized atomic wfcs
     Checking if some PAW data can be deallocated...

     Self-consistent Calculation

     iteration #  1     ecut=    80.00 Ry     beta= 0.40
     Davidson diagonalization with overlap
     ethr =  1.00E-02,  avg # of iterations =  4.8

     Threshold (ethr) on eigenvalues was too large:
     Diagonalizing with lowered threshold

     Davidson diagonalization with overlap
     ethr =  1.17E-04,  avg # of iterations =  7.2

     total energy              =   -6740.51476604 Ry
     estimated scf accuracy    <       0.28318504 Ry

[...]

     total energy              =   -6740.54663973 Ry
     estimated scf accuracy    <       0.00000013 Ry

     iteration #  9     ecut=    80.00 Ry     beta= 0.40
     Davidson diagonalization with overlap
     ethr =  5.20E-11,  avg # of iterations =  2.1

     End of self-consistent calculation

          k = 0.0000 0.0000 0.0000 ( 44625 PWs)   bands (ev):

   -56.2739 -56.2739 -56.2739 -56.2739 -56.2710 -56.2710 -56.2709 -56.2709
   -56.2563 -56.2563 -56.2562 -56.2562 -56.2510 -56.2510 -56.2510 -56.2509
   -56.2487 -56.2487 -56.2486 -56.2486 -56.2358 -56.2357 -56.2357 -56.2357
   -56.2236 -56.2236 -56.2236 -56.2236 -56.2200 -56.2200 -56.2200 -56.2199
   -56.2092 -56.2091 -56.2091 -56.2091 -56.2063 -56.2062 -56.2062 -56.2062
   -56.1906 -56.1905 -56.1905 -56.1905 -56.1896 -56.1896 -56.1896 -56.1895
   -56.1890 -56.1890 -56.1889 -56.1889 -56.1827 -56.1827 -56.1827 -56.1827
   -56.1797 -56.1797 -56.1797 -56.1797 -46.9325 -46.9325 -42.0589 -42.0589
   -41.7897 -41.7896 -41.7613 -41.7613 -20.7605 -20.7604 -20.7552 -20.7549
   -20.7549 -20.7549 -10.7195 -10.5383 -10.3924 -10.2858 -10.2760 -10.2668
   -10.2343 -10.2297 -10.2220 -10.1576 -10.1522 -10.1265  -0.1664  -0.1573
     0.2200   0.2463   0.2651   0.4092   0.4567   0.6237   0.6744   0.7431
     0.8641   0.8642   0.8747   1.0001   1.1269   1.2431   1.2657   1.2692
     1.2748   1.4845   1.5270   1.6969   1.7422   1.9400   1.9825   2.0189
     2.0574   2.0750   2.1892   2.2427   2.3342   2.4644   2.5299   2.5303
     2.5751   2.5812   7.0477   7.3040   7.4456   7.4667   7.4672   7.5189
     7.5487   8.7259   8.7454   8.8100   9.1092   9.1646   9.3656   9.3994
     9.4791   9.7266   9.9199  10.3139  10.3266  10.3784  10.6757  10.8633
    10.9507  11.1024

[...]

          k = 0.0000-0.0417-0.0765 ( 44568 PWs)   bands (ev):

[...]

          k =-0.0718 0.0000-0.0255 ( 44568 PWs)   bands (ev):

[...]

          k =-0.0718-0.0417-0.1020 ( 44544 PWs)   bands (ev):

   -56.2739 -56.2739 -56.2739 -56.2739 -56.2710 -56.2710 -56.2709 -56.2709
   -56.2562 -56.2562 -56.2562 -56.2562 -56.2510 -56.2510 -56.2510 -56.2509
   -56.2487 -56.2487 -56.2486 -56.2486 -56.2357 -56.2357 -56.2357 -56.2357
   -56.2236 -56.2236 -56.2236 -56.2236 -56.2200 -56.2200 -56.2199 -56.2199
   -56.2092 -56.2091 -56.2091 -56.2091 -56.2062 -56.2062 -56.2062 -56.2062
   -56.1905 -56.1905 -56.1905 -56.1905 -56.1895 -56.1895 -56.1895 -56.1895
   -56.1890 -56.1890 -56.1889 -56.1889 -56.1827 -56.1827 -56.1827 -56.1827
   -56.1797 -56.1797 -56.1797 -56.1797 -46.9325 -46.9324 -42.0589 -42.0589
   -41.7897 -41.7896 -41.7613 -41.7612 -20.7605 -20.7605 -20.7552 -20.7551
   -20.7550 -20.7550 -10.4635 -10.4635 -10.3845 -10.3844 -10.3244 -10.3243
   -10.2465 -10.2465 -10.2141 -10.2141 -10.1841 -10.1841  -0.2041  -0.2041
     0.2445   0.2445   0.3322   0.3322   0.4954   0.4954   0.6881   0.6881
     0.9577   0.9577   1.1133   1.1134   1.2165   1.2165   1.5217   1.5217
     1.5506   1.5506   1.6842   1.6842   1.7423   1.7423   1.9859   1.9859
     2.1155   2.1155   2.1377   2.1377   2.2746   2.2746   2.3083   2.3084
     2.3689   2.3689   7.0319   7.0319   7.3001   7.3001   7.3559   7.3559
     8.6886   8.6886   8.7808   8.7808   9.1487   9.1487   9.2501   9.2501
     9.7516   9.7516  10.1612  10.1613  10.6162  10.6162  10.7766  10.7766
    10.8729  10.8730

     the Fermi energy is     4.8163 ev

!    total energy              =   -6740.54663976 Ry

     total all-electron energy =   -114993.562598 Ry
     estimated scf accuracy    <          8.4E-09 Ry
     smearing contrib. (-TS)   =      -0.00000000 Ry
     internal energy E=F+TS    =   -6740.54663976 Ry

     The total energy is F=E-TS. E is the sum of the following terms:
     one-electron contribution =   -3515.78787527 Ry
     hartree contribution      =    1687.91278357 Ry
     xc contribution           =    -503.22040077 Ry
     ewald contribution        =   -1690.68325647 Ry
     one-center paw contrib.   =   -2718.76789082 Ry

     convergence has been achieved in   9 iterations

     Forces acting on atoms (cartesian axes, Ry/au):

     atom    1 type  1   force =     0.00000000   -0.00206687    0.00000000
     atom    2 type  1   force =     0.00000000    0.00041541    0.00000000
     atom    3 type  1   force =     0.00000000   -0.00040301    0.00000000
     atom    4 type  1   force =     0.00000000   -0.00206505    0.00000000
     atom    5 type  1   force =     0.00000000    0.00041979    0.00000000
     atom    6 type  1   force =     0.00000000   -0.00040565    0.00000000
     atom    7 type  2   force =     0.00000000    0.00079791    0.00000000
     atom    8 type  2   force =     0.00000000    0.00080208    0.00000000
     atom    9 type  3   force =     0.00087561    0.00142013    0.00400222
     atom   10 type  3   force =     0.00329538   -0.00229689    0.00132863
     atom   11 type  3   force =    -0.00329538   -0.00229689   -0.00132863
     atom   12 type  3   force =    -0.00087561    0.00142013   -0.00400222
     atom   13 type  3   force =    -0.00328603    0.00147105    0.00347012
     atom   14 type  3   force =     0.00328603    0.00147105   -0.00347012
     atom   15 type  3   force =     0.00088975    0.00139966    0.00405335
     atom   16 type  3   force =     0.00327122   -0.00225678    0.00132399
     atom   17 type  3   force =    -0.00327122   -0.00225678   -0.00132399
     atom   18 type  3   force =    -0.00088975    0.00139966   -0.00405335
     atom   19 type  3   force =    -0.00322895    0.00151551    0.00348225
     atom   20 type  3   force =     0.00322895    0.00151551   -0.00348225

     Total force =     0.016033     Total SCF correction =     0.000342

     Computing stress (Cartesian axis) and pressure

          total   stress  (Ry/bohr**3)                   (kbar)     P=       -7.26
  -0.00005263   0.00000000   0.00000241           -7.74        0.00        0.35
   0.00000000  -0.00005465   0.00000000            0.00       -8.04        0.00
   0.00000241   0.00000000  -0.00004071            0.35        0.00       -5.99

     Writing output data file ./pwscf.save/

     General routines

     Parallel routines

   This run was terminated on:  14:32:40  26Jul2021

   JOB DONE.