     Program PWSCF v.6.7MaX starts on 26Jul2021 at 14:31:42

     K-points division:     npool     =       2
     R & G space division:  proc/nbgrp/npool/nimage =      24
     Waiting for input...
     Reading input from standard input
Warning: card &CELL ignored
Warning: card CELL_DYNAMICS             = 'BFGS', ignored
Warning: card PRESS                     = '0.0', ignored
Warning: card PRESS_CONV_THR            = '0.5', ignored
Warning: card / ignored
     Message from routine read_cards :
     DEPRECATED: no units specified in CELL_PARAMETERS card

     Current dimensions of program PWSCF are:
     Max number of different atomic species (ntypx) = 10
     Max number of k-points (npk) =  40000
     Max angular momentum in pseudopotentials (lmaxx) =  3
     Message from routine cell_base_init:
     DEPRECATED: use true lattice parameter, not A to a.u. conversion factor
 end of file reached, closing tag not found
     file Er.pbe-spdn-kjpaw_psl.1.0.0.UPF: wavefunction(s)  6S 5D renormalized
     file Br.pbe-dn-kjpaw_psl.1.0.0.UPF: wavefunction(s)  4S 4P 3D renormalized

     Subspace diagonalization in iterative solution of the eigenvalue problem:
     a serial algorithm will be used

     Found symmetry operation: I + ( -0.5000 -0.5000  0.0000)
     This is a supercell, fractional translations are disabled
     Message from routine setup:
     using ibrav=0 with symmetry is DISCOURAGED, use correct ibrav instead

     bravais-lattice index     =            0
     lattice parameter (alat)  =       1.8897  a.u.
     unit-cell volume          =    3688.3023 (a.u.)^3
     number of atoms/cell      =           20
     number of atomic types    =            3
     number of electrons       =       244.00
     number of Kohn-Sham states=          146
     kinetic-energy cutoff     =     100.0000  Ry
     charge density cutoff     =     500.0000  Ry
     scf convergence threshold =      1.0E-08
     mixing beta               =       0.4000
     number of iterations used =            8  plain     mixing
     Exchange-correlation= SLA  PW   PBX  PBC
                           (   1   4   3   4   0   0   0)

     celldm(1)=   1.889726  celldm(2)=   0.000000  celldm(3)=   0.000000
     celldm(4)=   0.000000  celldm(5)=   0.000000  celldm(6)=   0.000000

     crystal axes: (cart. coord. in units of alat)
               a(1) = (   6.967356   0.000000   0.000000 )
               a(2) = (   0.000000  11.998880   0.000000 )
               a(3) = (  -2.324723   0.000000   6.537643 )

     reciprocal axes: (cart. coord. in units 2 pi/alat)
               b(1) = (  0.143526  0.000000  0.051037 )
               b(2) = (  0.000000  0.083341  0.000000 )
               b(3) = (  0.000000  0.000000  0.152960 )

     PseudoPot. # 1 for Li read from file:
     /central/groups/SeeGroup/qe_pseudopotentials/Li.pbe-s-kjpaw_psl.1.0.0.UPF
     MD5 check sum: cc502796ee09d8b62ac346ee26e59beb
     Pseudo is Projector augmented-wave, Zval =  3.0
     Generated using &quot;atomic&quot; code by A. Dal Corso  v.6.3
     Shape of augmentation charge: PSQ
     Using radial grid of 1017 points,  4 beta functions with:
                l(1) =   0
                l(2) =   0
                l(3) =   1
                l(4) =   1
     Q(r) pseudized with 0 coefficients

     PseudoPot. # 2 for Er read from file:
     /central/groups/SeeGroup/qe_pseudopotentials/Er.pbe-spdn-kjpaw_psl.1.0.0.UPF
     MD5 check sum: a923254af2aef992cff3e18bc73f2922
     Pseudo is Projector augmented-wave + core cor, Zval = 11.0
     Generated using &quot;atomic&quot; code by A. Dal Corso  v.6.2.2
     Shape of augmentation charge: PSQ
     Using radial grid of 1267 points,  6 beta functions with:
                l(1) =   0
                l(2) =   0
                l(3) =   1
                l(4) =   1
                l(5) =   2
                l(6) =   2
     Q(r) pseudized with 0 coefficients

     PseudoPot. # 3 for Br read from file:
     /central/groups/SeeGroup/qe_pseudopotentials/Br.pbe-dn-kjpaw_psl.1.0.0.UPF
     MD5 check sum: 4ca4ebabfd6065c7bb707b2ebe99e9b3
     Pseudo is Projector augmented-wave + core cor, Zval = 17.0
     Generated using &quot;atomic&quot; code by A. Dal Corso  v.6.3
     Shape of augmentation charge: PSQ
     Using radial grid of 1213 points,  6 beta functions with:
                l(1) =   0
                l(2) =   0
                l(3) =   1
                l(4) =   1
                l(5) =   2
                l(6) =   2
     Q(r) pseudized with 0 coefficients

     atomic species   valence    mass     pseudopotential
        Li             3.00     6.94100     Li( 1.00)
        Er            11.00   167.25900     Er( 1.00)
        Br            17.00    79.90400     Br( 1.00)

      2 Sym. Ops. (no inversion) found

   Cartesian axes

     site n.     atom                  positions (alat units)
         1           Li  tau(   1) = (   3.4836780   9.9564306   0.0000000  )
         2           Li  tau(   2) = (   3.4836780   2.0173957   0.0000000  )
         3           Li  tau(   3) = (   2.3213165   7.8846440   3.2688215  )
         4           Li  tau(   4) = (   0.0000000   3.9569906   0.0000000  )
         5           Li  tau(   5) = (   0.0000000   8.0168357   0.0000000  )
         6           Li  tau(   6) = (  -1.1623615   1.8852040   3.2688215  )
         7           Er  tau(   7) = (   3.4836780   5.9699947   0.0000000  )
         8           Er  tau(   8) = (   0.0000000  11.9694347   0.0000000  )
         9           Br  tau(   9) = (   3.4471523   9.9581465   5.0158758  )
        10           Br  tau(  10) = (   3.5847273   1.9854607   4.9258002  )
        11           Br  tau(  11) = (   1.0579057   1.9854607   1.6118428  )
        12           Br  tau(  12) = (   1.1954807   9.9581465   1.5217672  )
        13           Br  tau(  13) = (  -0.0150075   0.0698395   4.9769442  )
        14           Br  tau(  14) = (   4.6576405   0.0698395   1.5606988  )
        15           Br  tau(  15) = (  -0.0365257   3.9587065   5.0158758  )
        16           Br  tau(  16) = (   0.1010493   7.9849007   4.9258002  )
        17           Br  tau(  17) = (   4.5415837   7.9849007   1.6118428  )
        18           Br  tau(  18) = (   4.6791587   3.9587065   1.5217672  )
        19           Br  tau(  19) = (   3.4686705   6.0692795   4.9769442  )
        20           Br  tau(  20) = (   1.1739625   6.0692795   1.5606988  )

     number of k points=     8  Fermi-Dirac smearing, width (Ry)=  0.0070
                       cart. coord. in units 2pi/alat
        k(    1) = (   0.0000000   0.0000000   0.0000000), wk =   0.2500000
        k(    2) = (   0.0000000   0.0000000  -0.0764802), wk =   0.2500000
        k(    3) = (   0.0000000  -0.0416706   0.0000000), wk =   0.2500000
        k(    4) = (   0.0000000  -0.0416706  -0.0764802), wk =   0.2500000
        k(    5) = (  -0.0717632   0.0000000  -0.0255183), wk =   0.2500000
        k(    6) = (  -0.0717632   0.0000000  -0.1019985), wk =   0.2500000
        k(    7) = (  -0.0717632  -0.0416706  -0.0255183), wk =   0.2500000
        k(    8) = (  -0.0717632  -0.0416706  -0.1019985), wk =   0.2500000

     Initial potential from superposition of free atoms

     starting charge  243.93496, renormalised to  244.00000
     Starting wfcs are  164 randomized atomic wfcs
     Checking if some PAW data can be deallocated...

     Self-consistent Calculation

     iteration #  1     ecut=   100.00 Ry     beta= 0.40
     Davidson diagonalization with overlap
     ethr =  1.00E-02,  avg # of iterations =  5.0

     Threshold (ethr) on eigenvalues was too large:
     Diagonalizing with lowered threshold

     Davidson diagonalization with overlap
     ethr =  1.17E-04,  avg # of iterations =  6.5

     total energy              =   -6740.52255969 Ry
     estimated scf accuracy    <       0.28352216 Ry

[...]

     iteration #  4     ecut=   100.00 Ry     beta= 0.40
     Davidson diagonalization with overlap
     c_bands:  1 eigenvalues not converged
     ethr =  2.28E-06,  avg # of iterations =  9.8

[...]

     total energy              =   -6740.55464123 Ry
     estimated scf accuracy    <       0.00000001 Ry

     iteration # 10     ecut=   100.00 Ry     beta= 0.40
     Davidson diagonalization with overlap
     ethr =  4.52E-12,  avg # of iterations =  2.6

     End of self-consistent calculation

          k = 0.0000 0.0000 0.0000 ( 62259 PWs)   bands (ev):

   -56.2742 -56.2742 -56.2742 -56.2742 -56.2713 -56.2713 -56.2713 -56.2713
   -56.2566 -56.2566 -56.2565 -56.2565 -56.2514 -56.2514 -56.2514 -56.2513
   -56.2490 -56.2490 -56.2490 -56.2490 -56.2360 -56.2359 -56.2359 -56.2359
   -56.2238 -56.2238 -56.2238 -56.2237 -56.2202 -56.2201 -56.2201 -56.2201
   -56.2094 -56.2094 -56.2094 -56.2093 -56.2065 -56.2065 -56.2064 -56.2064
   -56.1908 -56.1908 -56.1907 -56.1907 -56.1898 -56.1898 -56.1898 -56.1898
   -56.1892 -56.1892 -56.1892 -56.1891 -56.1830 -56.1830 -56.1829 -56.1829
   -56.1800 -56.1800 -56.1800 -56.1799 -46.9330 -46.9329 -42.0687 -42.0687
   -41.7992 -41.7992 -41.7708 -41.7707 -20.7608 -20.7608 -20.7555 -20.7553
   -20.7552 -20.7552 -10.7197 -10.5385 -10.3927 -10.2860 -10.2762 -10.2670
   -10.2345 -10.2298 -10.2222 -10.1578 -10.1523 -10.1267  -0.1670  -0.1579
     0.2195   0.2458   0.2648   0.4090   0.4563   0.6234   0.6738   0.7425
     0.8635   0.8637   0.8744   0.9998   1.1264   1.2427   1.2654   1.2690
     1.2744   1.4843   1.5267   1.6965   1.7419   1.9397   1.9821   2.0186
     2.0571   2.0747   2.1889   2.2424   2.3339   2.4642   2.5296   2.5300
     2.5748   2.5809   7.0474   7.3029   7.4454   7.4657   7.4669   7.5187
     7.5479   8.7256   8.7432   8.8096   9.1077   9.1641   9.3654   9.3992
     9.4768   9.7252   9.9183  10.3119  10.3260  10.3778  10.6711  10.8582
    10.9502  11.1017

[...]

          k = 0.0000-0.0417-0.0765 ( 62320 PWs)   bands (ev):

[...]

          k =-0.0718 0.0000-0.0255 ( 62286 PWs)   bands (ev):

[...]

          k =-0.0718-0.0417-0.1020 ( 62320 PWs)   bands (ev):

   -56.2742 -56.2742 -56.2742 -56.2742 -56.2713 -56.2713 -56.2713 -56.2713
   -56.2566 -56.2566 -56.2565 -56.2565 -56.2514 -56.2514 -56.2514 -56.2513
   -56.2490 -56.2490 -56.2490 -56.2490 -56.2360 -56.2359 -56.2359 -56.2359
   -56.2238 -56.2238 -56.2238 -56.2237 -56.2202 -56.2201 -56.2201 -56.2201
   -56.2094 -56.2094 -56.2094 -56.2093 -56.2065 -56.2065 -56.2064 -56.2064
   -56.1908 -56.1908 -56.1907 -56.1907 -56.1898 -56.1898 -56.1898 -56.1898
   -56.1892 -56.1892 -56.1892 -56.1891 -56.1830 -56.1830 -56.1829 -56.1829
   -56.1800 -56.1800 -56.1800 -56.1799 -46.9330 -46.9329 -42.0687 -42.0687
   -41.7992 -41.7992 -41.7708 -41.7707 -20.7609 -20.7608 -20.7555 -20.7555
   -20.7553 -20.7553 -10.4637 -10.4637 -10.3847 -10.3847 -10.3246 -10.3245
   -10.2467 -10.2467 -10.2143 -10.2143 -10.1843 -10.1843  -0.2046  -0.2046
     0.2442   0.2442   0.3317   0.3317   0.4950   0.4950   0.6874   0.6874
     0.9572   0.9572   1.1131   1.1131   1.2162   1.2162   1.5214   1.5214
     1.5502   1.5502   1.6839   1.6839   1.7420   1.7420   1.9856   1.9856
     2.1152   2.1152   2.1374   2.1374   2.2743   2.2743   2.3081   2.3081
     2.3686   2.3686   7.0316   7.0316   7.2998   7.2999   7.3556   7.3556
     8.6882   8.6882   8.7793   8.7794   9.1459   9.1459   9.2490   9.2490
     9.7497   9.7497  10.1597  10.1597  10.6128  10.6128  10.7748  10.7749
    10.8722  10.8722

     the Fermi energy is     4.8133 ev

!    total energy              =   -6740.55464124 Ry

     total all-electron energy =   -114993.570599 Ry
     estimated scf accuracy    <          1.4E-09 Ry
     smearing contrib. (-TS)   =      -0.00000000 Ry
     internal energy E=F+TS    =   -6740.55464124 Ry

     The total energy is F=E-TS. E is the sum of the following terms:
     one-electron contribution =   -3515.78833556 Ry
     hartree contribution      =    1687.87320334 Ry
     xc contribution           =    -503.20952524 Ry
     ewald contribution        =   -1690.68325647 Ry
     one-center paw contrib.   =   -2718.74672730 Ry

     convergence has been achieved in  10 iterations

     Forces acting on atoms (cartesian axes, Ry/au):

     atom    1 type  1   force =     0.00000000   -0.00208021    0.00000000
     atom    2 type  1   force =     0.00000000    0.00043132    0.00000000
     atom    3 type  1   force =     0.00000000   -0.00041409    0.00000000
     atom    4 type  1   force =     0.00000000   -0.00207853    0.00000000
     atom    5 type  1   force =     0.00000000    0.00043092    0.00000000
     atom    6 type  1   force =     0.00000000   -0.00041281    0.00000000
     atom    7 type  2   force =     0.00000000    0.00080002    0.00000000
     atom    8 type  2   force =     0.00000000    0.00079657    0.00000000
     atom    9 type  3   force =     0.00086991    0.00133200    0.00401844
     atom   10 type  3   force =     0.00326339   -0.00218990    0.00133547
     atom   11 type  3   force =    -0.00326339   -0.00218990   -0.00133547
     atom   12 type  3   force =    -0.00086991    0.00133200   -0.00401844
     atom   13 type  3   force =    -0.00324788    0.00152199    0.00339272
     atom   14 type  3   force =     0.00324788    0.00152199   -0.00339272
     atom   15 type  3   force =     0.00089115    0.00134224    0.00405326
     atom   16 type  3   force =     0.00327697   -0.00223636    0.00134323
     atom   17 type  3   force =    -0.00327697   -0.00223636   -0.00134323
     atom   18 type  3   force =    -0.00089115    0.00134224   -0.00405326
     atom   19 type  3   force =    -0.00325319    0.00149343    0.00341013
     atom   20 type  3   force =     0.00325319    0.00149343   -0.00341013

     Total force =     0.015913     Total SCF correction =     0.000200

     Computing stress (Cartesian axis) and pressure

          total   stress  (Ry/bohr**3)                   (kbar)     P=       -4.75
  -0.00003553   0.00000000   0.00000242           -5.23        0.00        0.36
   0.00000000  -0.00003761   0.00000000            0.00       -5.53        0.00
   0.00000242   0.00000000  -0.00002365            0.36        0.00       -3.48

     Writing output data file ./pwscf.save/

     General routines

     Parallel routines

   This run was terminated on:  14:33: 4  26Jul2021

   JOB DONE.