     Program PWSCF v.6.7MaX starts on  2Aug2021 at 17:17:16

     K-points division:     npool     =       2
     R & G space division:  proc/nbgrp/npool/nimage =      24
     Waiting for input...
     Reading input from standard input
Warning: card &CELL ignored
Warning: card CELL_DYNAMICS             = 'BFGS', ignored
Warning: card PRESS                     = '0.0', ignored
Warning: card PRESS_CONV_THR            = '0.5', ignored
Warning: card / ignored
     Message from routine read_cards :
     DEPRECATED: no units specified in CELL_PARAMETERS card

     Current dimensions of program PWSCF are:
     Max number of different atomic species (ntypx) = 10
     Max number of k-points (npk) =  40000
     Max angular momentum in pseudopotentials (lmaxx) =  3
     Message from routine cell_base_init:
     DEPRECATED: use true lattice parameter, not A to a.u. conversion factor
 end of file reached, closing tag not found
     file Er.pbe-spdn-kjpaw_psl.1.0.0.UPF: wavefunction(s)  6S 5D renormalized
     file Br.pbe-dn-kjpaw_psl.1.0.0.UPF: wavefunction(s)  4S 4P 3D renormalized

     Subspace diagonalization in iterative solution of the eigenvalue problem:
     a serial algorithm will be used

     Found symmetry operation: I + ( -0.5000 -0.5000  0.0000)
     This is a supercell, fractional translations are disabled
     Message from routine setup:
     using ibrav=0 with symmetry is DISCOURAGED, use correct ibrav instead

     bravais-lattice index     =            0
     lattice parameter (alat)  =       1.8897  a.u.
     unit-cell volume          =    3688.3023 (a.u.)^3
     number of atoms/cell      =           20
     number of atomic types    =            3
     number of electrons       =       244.00
     number of Kohn-Sham states=          146
     kinetic-energy cutoff     =      40.0000  Ry
     charge density cutoff     =     200.0000  Ry
     scf convergence threshold =      1.0E-08
     mixing beta               =       0.4000
     number of iterations used =            8  plain     mixing
     Exchange-correlation= SLA  PW   PBX  PBC
                           (   1   4   3   4   0   0   0)

     celldm(1)=   1.889726  celldm(2)=   0.000000  celldm(3)=   0.000000
     celldm(4)=   0.000000  celldm(5)=   0.000000  celldm(6)=   0.000000

     crystal axes: (cart. coord. in units of alat)
               a(1) = (   6.967356   0.000000   0.000000 )
               a(2) = (   0.000000  11.998880   0.000000 )
               a(3) = (  -2.324723   0.000000   6.537643 )

     reciprocal axes: (cart. coord. in units 2 pi/alat)
               b(1) = (  0.143526  0.000000  0.051037 )
               b(2) = (  0.000000  0.083341  0.000000 )
               b(3) = (  0.000000  0.000000  0.152960 )

     PseudoPot. # 1 for Li read from file:
     /central/groups/SeeGroup/qe_pseudopotentials/Li.pbe-s-kjpaw_psl.1.0.0.UPF
     MD5 check sum: cc502796ee09d8b62ac346ee26e59beb
     Pseudo is Projector augmented-wave, Zval =  3.0
     Generated using &quot;atomic&quot; code by A. Dal Corso  v.6.3
     Shape of augmentation charge: PSQ
     Using radial grid of 1017 points,  4 beta functions with:
                l(1) =   0
                l(2) =   0
                l(3) =   1
                l(4) =   1
     Q(r) pseudized with 0 coefficients

     PseudoPot. # 2 for Er read from file:
     /central/groups/SeeGroup/qe_pseudopotentials/Er.pbe-spdn-kjpaw_psl.1.0.0.UPF
     MD5 check sum: a923254af2aef992cff3e18bc73f2922
     Pseudo is Projector augmented-wave + core cor, Zval = 11.0
     Generated using &quot;atomic&quot; code by A. Dal Corso  v.6.2.2
     Shape of augmentation charge: PSQ
     Using radial grid of 1267 points,  6 beta functions with:
                l(1) =   0
                l(2) =   0
                l(3) =   1
                l(4) =   1
                l(5) =   2
                l(6) =   2
     Q(r) pseudized with 0 coefficients

     PseudoPot. # 3 for Br read from file:
     /central/groups/SeeGroup/qe_pseudopotentials/Br.pbe-dn-kjpaw_psl.1.0.0.UPF
     MD5 check sum: 4ca4ebabfd6065c7bb707b2ebe99e9b3
     Pseudo is Projector augmented-wave + core cor, Zval = 17.0
     Generated using &quot;atomic&quot; code by A. Dal Corso  v.6.3
     Shape of augmentation charge: PSQ
     Using radial grid of 1213 points,  6 beta functions with:
                l(1) =   0
                l(2) =   0
                l(3) =   1
                l(4) =   1
                l(5) =   2
                l(6) =   2
     Q(r) pseudized with 0 coefficients

     atomic species   valence    mass     pseudopotential
        Li             3.00     6.94100     Li( 1.00)
        Er            11.00   167.25900     Er( 1.00)
        Br            17.00    79.90400     Br( 1.00)

      2 Sym. Ops. (no inversion) found

   Cartesian axes

     site n.     atom                  positions (alat units)
         1           Li  tau(   1) = (   3.4836780   9.9564306   0.0000000  )
         2           Li  tau(   2) = (   3.4836780   2.0173957   0.0000000  )
         3           Li  tau(   3) = (   2.3213165   7.8846440   3.2688215  )
         4           Li  tau(   4) = (   0.0000000   3.9569906   0.0000000  )
         5           Li  tau(   5) = (   0.0000000   8.0168357   0.0000000  )
         6           Li  tau(   6) = (  -1.1623615   1.8852040   3.2688215  )
         7           Er  tau(   7) = (   3.4836780   5.9699947   0.0000000  )
         8           Er  tau(   8) = (   0.0000000  11.9694347   0.0000000  )
         9           Br  tau(   9) = (   3.4471523   9.9581465   5.0158758  )
        10           Br  tau(  10) = (   3.5847273   1.9854607   4.9258002  )
        11           Br  tau(  11) = (   1.0579057   1.9854607   1.6118428  )
        12           Br  tau(  12) = (   1.1954807   9.9581465   1.5217672  )
        13           Br  tau(  13) = (  -0.0150075   0.0698395   4.9769442  )
        14           Br  tau(  14) = (   4.6576405   0.0698395   1.5606988  )
        15           Br  tau(  15) = (  -0.0365257   3.9587065   5.0158758  )
        16           Br  tau(  16) = (   0.1010493   7.9849007   4.9258002  )
        17           Br  tau(  17) = (   4.5415837   7.9849007   1.6118428  )
        18           Br  tau(  18) = (   4.6791587   3.9587065   1.5217672  )
        19           Br  tau(  19) = (   3.4686705   6.0692795   4.9769442  )
        20           Br  tau(  20) = (   1.1739625   6.0692795   1.5606988  )

     number of k points=    20  Fermi-Dirac smearing, width (Ry)=  0.0070
                       cart. coord. in units 2pi/alat
        k(    1) = (   0.0000000   0.0000000   0.0000000), wk =   0.0625000
        k(    2) = (   0.0000000   0.0000000   0.0382401), wk =   0.1250000
        k(    3) = (   0.0000000   0.0000000  -0.0764802), wk =   0.0625000
        k(    4) = (   0.0000000  -0.0416706   0.0000000), wk =   0.0625000
        k(    5) = (   0.0000000  -0.0416706   0.0382401), wk =   0.1250000
        k(    6) = (   0.0000000  -0.0416706  -0.0764802), wk =   0.0625000
        k(    7) = (   0.0358816   0.0000000   0.0127592), wk =   0.1250000
        k(    8) = (   0.0358816   0.0000000   0.0509992), wk =   0.1250000
        k(    9) = (   0.0358816   0.0000000  -0.0637210), wk =   0.1250000
        k(   10) = (   0.0358816   0.0000000  -0.0254809), wk =   0.1250000
        k(   11) = (   0.0358816  -0.0416706   0.0127592), wk =   0.1250000
        k(   12) = (   0.0358816  -0.0416706   0.0509992), wk =   0.1250000
        k(   13) = (   0.0358816  -0.0416706  -0.0637210), wk =   0.1250000
        k(   14) = (   0.0358816  -0.0416706  -0.0254809), wk =   0.1250000
        k(   15) = (  -0.0717632   0.0000000  -0.0255183), wk =   0.0625000
        k(   16) = (  -0.0717632   0.0000000   0.0127218), wk =   0.1250000
        k(   17) = (  -0.0717632   0.0000000  -0.1019985), wk =   0.0625000
        k(   18) = (  -0.0717632  -0.0416706  -0.0255183), wk =   0.0625000
        k(   19) = (  -0.0717632  -0.0416706   0.0127218), wk =   0.1250000
        k(   20) = (  -0.0717632  -0.0416706  -0.1019985), wk =   0.0625000

     Check: negative core charge=   -0.000006

     Initial potential from superposition of free atoms

     starting charge  243.93496, renormalised to  244.00000
     Starting wfcs are  164 randomized atomic wfcs
     Checking if some PAW data can be deallocated...

     Self-consistent Calculation

     iteration #  1     ecut=    40.00 Ry     beta= 0.40
     Davidson diagonalization with overlap
     ethr =  1.00E-02,  avg # of iterations =  4.9

     Threshold (ethr) on eigenvalues was too large:
     Diagonalizing with lowered threshold

     Davidson diagonalization with overlap
     ethr =  1.19E-04,  avg # of iterations =  8.2

     total energy              =   -6739.15014861 Ry
     estimated scf accuracy    <       0.30307172 Ry

[...]

     iteration # 21     ecut=    40.00 Ry     beta= 0.40
     Davidson diagonalization with overlap
     c_bands:  1 eigenvalues not converged
     ethr =  6.05E-10,  avg # of iterations =  4.8

[...]

     negative rho (up, down):  3.306E-06 0.000E+00

[...]

     negative rho (up, down):  4.971E-06 0.000E+00

[...]

     iteration # 36     ecut=    40.00 Ry     beta= 0.40
     Davidson diagonalization with overlap
     c_bands:  1 eigenvalues not converged
     ethr =  6.05E-10,  avg # of iterations =  5.9

[...]

     total energy              =   -6739.18051874 Ry
     estimated scf accuracy    <       0.00000046 Ry

     iteration # 48     ecut=    40.00 Ry     beta= 0.40
     Davidson diagonalization with overlap
     ethr =  1.87E-10,  avg # of iterations =  3.0

     End of self-consistent calculation

          k = 0.0000 0.0000 0.0000 ( 15777 PWs)   bands (ev):

   -56.5504 -56.5479 -56.5478 -56.5440 -56.5440 -56.5439 -56.5435 -56.5399
   -56.5301 -56.5287 -56.5279 -56.5269 -56.5255 -56.5252 -56.5215 -56.5215
   -56.5204 -56.5191 -56.5182 -56.5153 -56.5111 -56.5099 -56.5065 -56.5056
   -56.5037 -56.5035 -56.5022 -56.4985 -56.4977 -56.4968 -56.4958 -56.4950
   -56.4898 -56.4886 -56.4879 -56.4868 -56.4859 -56.4842 -56.4841 -56.4835
   -56.4793 -56.4728 -56.4712 -56.4709 -56.4683 -56.4675 -56.4667 -56.4660
   -56.4656 -56.4652 -56.4642 -56.4627 -56.4595 -56.4587 -56.4573 -56.4566
   -56.4564 -56.4553 -56.4551 -56.4549 -46.9180 -46.9179 -42.4468 -42.4460
   -42.1558 -42.1549 -42.1178 -42.1170 -20.7457 -20.7456 -20.7402 -20.7399
   -20.7397 -20.7397 -10.7147 -10.5337 -10.3905 -10.2832 -10.2738 -10.2647
   -10.2344 -10.2301 -10.2217 -10.1567 -10.1511 -10.1273  -0.1454  -0.1371
     0.2437   0.2695   0.2778   0.4192   0.4697   0.6353   0.6934   0.7614
     0.8791   0.8836   0.8865   1.0137   1.1420   1.2556   1.2756   1.2783
     1.2890   1.4942   1.5360   1.7060   1.7508   1.9496   1.9918   2.0292
     2.0651   2.0831   2.1967   2.2506   2.3415   2.4726   2.5371   2.5371
     2.5813   2.5866   7.0652   7.3377   7.4579   7.4828   7.4956   7.5311
     7.5735   8.7478   8.7956   8.8299   9.1339   9.1695   9.3779   9.4092
     9.5316   9.7541   9.9513  10.3439  10.3520  10.3922  10.7840  10.9729
    10.9961  11.1185

[...]

          k = 0.0359-0.0417-0.0255 ( 15750 PWs)   bands (ev):

[...]

          k =-0.0718 0.0000-0.0255 ( 15744 PWs)   bands (ev):

[...]

          k =-0.0718-0.0417-0.1020 ( 15732 PWs)   bands (ev):

   -56.5483 -56.5483 -56.5443 -56.5443 -56.5411 -56.5411 -56.5386 -56.5386
   -56.5286 -56.5285 -56.5282 -56.5282 -56.5226 -56.5225 -56.5189 -56.5189
   -56.5141 -56.5141 -56.5131 -56.5131 -56.5103 -56.5103 -56.5079 -56.5079
   -56.4980 -56.4980 -56.4965 -56.4965 -56.4951 -56.4951 -56.4935 -56.4935
   -56.4886 -56.4886 -56.4876 -56.4876 -56.4823 -56.4823 -56.4796 -56.4795
   -56.4732 -56.4732 -56.4689 -56.4689 -56.4672 -56.4672 -56.4658 -56.4657
   -56.4631 -56.4631 -56.4617 -56.4617 -56.4587 -56.4587 -56.4552 -56.4552
   -56.4515 -56.4515 -56.4486 -56.4486 -46.9180 -46.9179 -42.4457 -42.4455
   -42.1546 -42.1542 -42.1166 -42.1165 -20.7457 -20.7457 -20.7401 -20.7401
   -20.7399 -20.7399 -10.4620 -10.4620 -10.3799 -10.3798 -10.3214 -10.3213
   -10.2456 -10.2456 -10.2141 -10.2140 -10.1843 -10.1843  -0.1845  -0.1844
     0.2603   0.2603   0.3473   0.3473   0.5112   0.5113   0.7150   0.7150
     0.9747   0.9747   1.1230   1.1230   1.2254   1.2255   1.5309   1.5309
     1.5612   1.5612   1.6931   1.6931   1.7518   1.7518   1.9961   1.9961
     2.1248   2.1248   2.1451   2.1451   2.2803   2.2803   2.3163   2.3163
     2.3754   2.3754   7.0511   7.0511   7.3143   7.3144   7.3721   7.3721
     8.7056   8.7060   8.8145   8.8146   9.1977   9.1977   9.2842   9.2843
     9.7981   9.7983  10.2010  10.2011  10.6742  10.6743  10.8214  10.8215
    10.8860  10.8860

     the Fermi energy is     4.8614 ev

!    total energy              =   -6739.18053799 Ry

     total all-electron energy =   -114992.196496 Ry
     estimated scf accuracy    <          8.0E-09 Ry
     smearing contrib. (-TS)   =      -0.00000000 Ry
     internal energy E=F+TS    =   -6739.18053799 Ry

     The total energy is F=E-TS. E is the sum of the following terms:
     one-electron contribution =   -3511.44628499 Ry
     hartree contribution      =    1685.72312625 Ry
     xc contribution           =    -502.75685227 Ry
     ewald contribution        =   -1690.68325647 Ry
     one-center paw contrib.   =   -2720.01727051 Ry

     convergence has been achieved in  48 iterations

     Forces acting on atoms (cartesian axes, Ry/au):

     atom    1 type  1   force =     0.00000000    0.00431433    0.00000000
     atom    2 type  1   force =     0.00000000   -0.00265312    0.00000000
     atom    3 type  1   force =     0.00000000   -0.00415773    0.00000000
     atom    4 type  1   force =     0.00000000    0.00456614    0.00000000
     atom    5 type  1   force =     0.00000000   -0.00297089    0.00000000
     atom    6 type  1   force =     0.00000000   -0.00517893    0.00000000
     atom    7 type  2   force =     0.00000000    0.00083329    0.00000000
     atom    8 type  2   force =     0.00000000    0.00083292    0.00000000
     atom    9 type  3   force =     0.00153525    0.00223341    0.00458477
     atom   10 type  3   force =     0.00312114   -0.00275521    0.00195340
     atom   11 type  3   force =    -0.00312114   -0.00275521   -0.00195340
     atom   12 type  3   force =    -0.00153525    0.00223341   -0.00458477
     atom   13 type  3   force =    -0.00430107    0.00163254    0.00354748
     atom   14 type  3   force =     0.00430107    0.00163254   -0.00354748
     atom   15 type  3   force =     0.00153629    0.00223979    0.00458056
     atom   16 type  3   force =     0.00311574   -0.00276884    0.00196768
     atom   17 type  3   force =    -0.00311574   -0.00276884   -0.00196768
     atom   18 type  3   force =    -0.00153629    0.00223979   -0.00458056
     atom   19 type  3   force =    -0.00431698    0.00162530    0.00353608
     atom   20 type  3   force =     0.00431698    0.00162530   -0.00353608

     Total force =     0.020836     Total SCF correction =     0.000810

     Computing stress (Cartesian axis) and pressure

          total   stress  (Ry/bohr**3)                   (kbar)     P=     -391.97
  -0.00268626   0.00000000  -0.00000170         -395.16        0.00       -0.25
   0.00000000  -0.00262907   0.00000000            0.00     -386.75        0.00
  -0.00000170   0.00000000  -0.00267833           -0.25        0.00     -394.00

     Writing output data file ./pwscf.save/

     General routines

     Parallel routines

   This run was terminated on:  17:21:56   2Aug2021

   JOB DONE.