     Program PWSCF v.6.7MaX starts on  2Aug2021 at 17: 2:30

     K-points division:     npool     =       2
     R & G space division:  proc/nbgrp/npool/nimage =      24
     Waiting for input...
     Reading input from standard input
Warning: card &CELL ignored
Warning: card CELL_DYNAMICS             = 'BFGS', ignored
Warning: card PRESS                     = '0.0', ignored
Warning: card PRESS_CONV_THR            = '0.5', ignored
Warning: card / ignored
     Message from routine read_cards :
     DEPRECATED: no units specified in CELL_PARAMETERS card

     Current dimensions of program PWSCF are:
     Max number of different atomic species (ntypx) = 10
     Max number of k-points (npk) =  40000
     Max angular momentum in pseudopotentials (lmaxx) =  3
     Message from routine cell_base_init:
     DEPRECATED: use true lattice parameter, not A to a.u. conversion factor
 end of file reached, closing tag not found
     file Er.pbe-spdn-kjpaw_psl.1.0.0.UPF: wavefunction(s)  6S 5D renormalized
     file Br.pbe-dn-kjpaw_psl.1.0.0.UPF: wavefunction(s)  4S 4P 3D renormalized

     Subspace diagonalization in iterative solution of the eigenvalue problem:
     a serial algorithm will be used

     Found symmetry operation: I + ( -0.5000 -0.5000  0.0000)
     This is a supercell, fractional translations are disabled
     Message from routine setup:
     using ibrav=0 with symmetry is DISCOURAGED, use correct ibrav instead
     Message from routine divide_et_impera:
     suboptimal parallelization: some nodes have no k-points

     bravais-lattice index     =            0
     lattice parameter (alat)  =       1.8897  a.u.
     unit-cell volume          =    3688.3023 (a.u.)^3
     number of atoms/cell      =           20
     number of atomic types    =            3
     number of electrons       =       244.00
     number of Kohn-Sham states=          146
     kinetic-energy cutoff     =     120.0000  Ry
     charge density cutoff     =     600.0000  Ry
     scf convergence threshold =      1.0E-08
     mixing beta               =       0.4000
     number of iterations used =            8  plain     mixing
     Exchange-correlation= SLA  PW   PBX  PBC
                           (   1   4   3   4   0   0   0)

     celldm(1)=   1.889726  celldm(2)=   0.000000  celldm(3)=   0.000000
     celldm(4)=   0.000000  celldm(5)=   0.000000  celldm(6)=   0.000000

     crystal axes: (cart. coord. in units of alat)
               a(1) = (   6.967356   0.000000   0.000000 )
               a(2) = (   0.000000  11.998880   0.000000 )
               a(3) = (  -2.324723   0.000000   6.537643 )

     reciprocal axes: (cart. coord. in units 2 pi/alat)
               b(1) = (  0.143526  0.000000  0.051037 )
               b(2) = (  0.000000  0.083341  0.000000 )
               b(3) = (  0.000000  0.000000  0.152960 )

     PseudoPot. # 1 for Li read from file:
     /central/groups/SeeGroup/qe_pseudopotentials/Li.pbe-s-kjpaw_psl.1.0.0.UPF
     MD5 check sum: cc502796ee09d8b62ac346ee26e59beb
     Pseudo is Projector augmented-wave, Zval =  3.0
     Generated using &quot;atomic&quot; code by A. Dal Corso  v.6.3
     Shape of augmentation charge: PSQ
     Using radial grid of 1017 points,  4 beta functions with:
                l(1) =   0
                l(2) =   0
                l(3) =   1
                l(4) =   1
     Q(r) pseudized with 0 coefficients

     PseudoPot. # 2 for Er read from file:
     /central/groups/SeeGroup/qe_pseudopotentials/Er.pbe-spdn-kjpaw_psl.1.0.0.UPF
     MD5 check sum: a923254af2aef992cff3e18bc73f2922
     Pseudo is Projector augmented-wave + core cor, Zval = 11.0
     Generated using &quot;atomic&quot; code by A. Dal Corso  v.6.2.2
     Shape of augmentation charge: PSQ
     Using radial grid of 1267 points,  6 beta functions with:
                l(1) =   0
                l(2) =   0
                l(3) =   1
                l(4) =   1
                l(5) =   2
                l(6) =   2
     Q(r) pseudized with 0 coefficients

     PseudoPot. # 3 for Br read from file:
     /central/groups/SeeGroup/qe_pseudopotentials/Br.pbe-dn-kjpaw_psl.1.0.0.UPF
     MD5 check sum: 4ca4ebabfd6065c7bb707b2ebe99e9b3
     Pseudo is Projector augmented-wave + core cor, Zval = 17.0
     Generated using &quot;atomic&quot; code by A. Dal Corso  v.6.3
     Shape of augmentation charge: PSQ
     Using radial grid of 1213 points,  6 beta functions with:
                l(1) =   0
                l(2) =   0
                l(3) =   1
                l(4) =   1
                l(5) =   2
                l(6) =   2
     Q(r) pseudized with 0 coefficients

     atomic species   valence    mass     pseudopotential
        Li             3.00     6.94100     Li( 1.00)
        Er            11.00   167.25900     Er( 1.00)
        Br            17.00    79.90400     Br( 1.00)

      2 Sym. Ops. (no inversion) found

   Cartesian axes

     site n.     atom                  positions (alat units)
         1           Li  tau(   1) = (   3.4836780   9.9564306   0.0000000  )
         2           Li  tau(   2) = (   3.4836780   2.0173957   0.0000000  )
         3           Li  tau(   3) = (   2.3213165   7.8846440   3.2688215  )
         4           Li  tau(   4) = (   0.0000000   3.9569906   0.0000000  )
         5           Li  tau(   5) = (   0.0000000   8.0168357   0.0000000  )
         6           Li  tau(   6) = (  -1.1623615   1.8852040   3.2688215  )
         7           Er  tau(   7) = (   3.4836780   5.9699947   0.0000000  )
         8           Er  tau(   8) = (   0.0000000  11.9694347   0.0000000  )
         9           Br  tau(   9) = (   3.4471523   9.9581465   5.0158758  )
        10           Br  tau(  10) = (   3.5847273   1.9854607   4.9258002  )
        11           Br  tau(  11) = (   1.0579057   1.9854607   1.6118428  )
        12           Br  tau(  12) = (   1.1954807   9.9581465   1.5217672  )
        13           Br  tau(  13) = (  -0.0150075   0.0698395   4.9769442  )
        14           Br  tau(  14) = (   4.6576405   0.0698395   1.5606988  )
        15           Br  tau(  15) = (  -0.0365257   3.9587065   5.0158758  )
        16           Br  tau(  16) = (   0.1010493   7.9849007   4.9258002  )
        17           Br  tau(  17) = (   4.5415837   7.9849007   1.6118428  )
        18           Br  tau(  18) = (   4.6791587   3.9587065   1.5217672  )
        19           Br  tau(  19) = (   3.4686705   6.0692795   4.9769442  )
        20           Br  tau(  20) = (   1.1739625   6.0692795   1.5606988  )

     number of k points=     1  Fermi-Dirac smearing, width (Ry)=  0.0070
                       cart. coord. in units 2pi/alat
        k(    1) = (   0.0000000   0.0000000   0.0000000), wk =   2.0000000

     Initial potential from superposition of free atoms

     starting charge  243.93496, renormalised to  244.00000
     Starting wfcs are  164 randomized atomic wfcs
     Checking if some PAW data can be deallocated...

     Self-consistent Calculation

     iteration #  1     ecut=   120.00 Ry     beta= 0.40
     Davidson diagonalization with overlap
     ethr =  1.00E-02,  avg # of iterations =  7.0

     Threshold (ethr) on eigenvalues was too large:
     Diagonalizing with lowered threshold

     Davidson diagonalization with overlap
     ethr =  1.26E-04,  avg # of iterations =  5.0

     total energy              =   -6740.46414089 Ry
     estimated scf accuracy    <       0.30701452 Ry

[...]

     total energy              =   -6740.49870715 Ry
     estimated scf accuracy    <       0.00000001 Ry

     iteration # 10     ecut=   120.00 Ry     beta= 0.40
     Davidson diagonalization with overlap
     ethr =  4.15E-12,  avg # of iterations =  2.0

     End of self-consistent calculation

          k = 0.0000 0.0000 0.0000 ( 81869 PWs)   bands (ev):

   -56.2078 -56.2078 -56.2078 -56.2078 -56.2057 -56.2057 -56.2057 -56.2057
   -56.1798 -56.1798 -56.1798 -56.1798 -56.1762 -56.1762 -56.1762 -56.1762
   -56.1690 -56.1690 -56.1690 -56.1689 -56.1679 -56.1679 -56.1679 -56.1679
   -56.1612 -56.1611 -56.1611 -56.1611 -56.1568 -56.1568 -56.1568 -56.1568
   -56.1553 -56.1552 -56.1552 -56.1552 -56.1502 -56.1502 -56.1502 -56.1502
   -56.1405 -56.1405 -56.1404 -56.1404 -56.1250 -56.1250 -56.1250 -56.1250
   -56.1232 -56.1232 -56.1232 -56.1232 -56.1162 -56.1161 -56.1161 -56.1161
   -56.1152 -56.1152 -56.1152 -56.1152 -46.9252 -46.9251 -42.1081 -42.1081
   -41.8369 -41.8369 -41.7757 -41.7757 -20.7639 -20.7638 -20.7445 -20.7444
   -20.7376 -20.7373 -10.6797 -10.4955 -10.3519 -10.2410 -10.2302 -10.2212
   -10.1994 -10.1959 -10.1835 -10.1160 -10.1096 -10.0888  -0.1368  -0.1267
     0.2540   0.2819   0.2927   0.4324   0.4785   0.6445   0.7049   0.7724
     0.8821   0.8869   0.8965   1.0358   1.1478   1.2786   1.2819   1.2821
     1.3032   1.5088   1.5534   1.7189   1.7761   1.9733   2.0160   2.0572
     2.0937   2.1071   2.2289   2.2820   2.3660   2.5054   2.5515   2.5690
     2.6091   2.6102   7.0613   7.3148   7.4650   7.4770   7.4792   7.5377
     7.5694   8.7351   8.7654   8.8197   9.1320   9.1802   9.3747   9.4094
     9.5042   9.7464   9.9543  10.3345  10.3416  10.3865  10.6853  10.8750
    10.9670  11.1213

     the Fermi energy is     4.8978 ev

!    total energy              =   -6740.49870715 Ry

     total all-electron energy =   -114993.514665 Ry
     estimated scf accuracy    <          1.2E-09 Ry
     smearing contrib. (-TS)   =      -0.00000000 Ry
     internal energy E=F+TS    =   -6740.49870715 Ry

     The total energy is F=E-TS. E is the sum of the following terms:
     one-electron contribution =   -3516.46337891 Ry
     hartree contribution      =    1688.68715416 Ry
     xc contribution           =    -503.29464803 Ry
     ewald contribution        =   -1690.68325647 Ry
     one-center paw contrib.   =   -2718.74457790 Ry

     convergence has been achieved in  10 iterations

     Forces acting on atoms (cartesian axes, Ry/au):

     atom    1 type  1   force =     0.00000000   -0.00197756    0.00000000
     atom    2 type  1   force =     0.00000000    0.00037135    0.00000000
     atom    3 type  1   force =     0.00000000   -0.00157005    0.00000000
     atom    4 type  1   force =     0.00000000   -0.00197804    0.00000000
     atom    5 type  1   force =     0.00000000    0.00037383    0.00000000
     atom    6 type  1   force =     0.00000000   -0.00157154    0.00000000
     atom    7 type  2   force =     0.00000000   -0.00014171    0.00000000
     atom    8 type  2   force =     0.00000000   -0.00014029    0.00000000
     atom    9 type  3   force =     0.00031686    0.00561432    0.00699180
     atom   10 type  3   force =     0.00565811   -0.00182172    0.00174025
     atom   11 type  3   force =    -0.00565811   -0.00182172   -0.00174025
     atom   12 type  3   force =    -0.00031686    0.00561432   -0.00699180
     atom   13 type  3   force =    -0.00423660   -0.00214812    0.00526399
     atom   14 type  3   force =     0.00423660   -0.00214812   -0.00526399
     atom   15 type  3   force =     0.00030678    0.00558314    0.00699308
     atom   16 type  3   force =     0.00564102   -0.00178108    0.00172786
     atom   17 type  3   force =    -0.00564102   -0.00178108   -0.00172786
     atom   18 type  3   force =    -0.00030678    0.00558314   -0.00699308
     atom   19 type  3   force =    -0.00421034   -0.00212954    0.00526835
     atom   20 type  3   force =     0.00421034   -0.00212954   -0.00526835

     Total force =     0.026224     Total SCF correction =     0.000200

     Computing stress (Cartesian axis) and pressure

          total   stress  (Ry/bohr**3)                   (kbar)     P=        0.04
  -0.00004757   0.00000000   0.00008617           -7.00        0.00       12.68
   0.00000000   0.00002340   0.00000000            0.00        3.44        0.00
   0.00008617   0.00000000   0.00002491           12.68        0.00        3.66

     Writing output data file ./pwscf.save/

     General routines

     Parallel routines

   This run was terminated on:  17: 3: 6   2Aug2021

   JOB DONE.