     Program PWSCF v.6.7MaX starts on  2Aug2021 at 17:13:33

     K-points division:     npool     =       2
     R & G space division:  proc/nbgrp/npool/nimage =      24
     Waiting for input...
     Reading input from standard input
Warning: card &CELL ignored
Warning: card CELL_DYNAMICS             = 'BFGS', ignored
Warning: card PRESS                     = '0.0', ignored
Warning: card PRESS_CONV_THR            = '0.5', ignored
Warning: card / ignored
     Message from routine read_cards :
     DEPRECATED: no units specified in CELL_PARAMETERS card

     Current dimensions of program PWSCF are:
     Max number of different atomic species (ntypx) = 10
     Max number of k-points (npk) =  40000
     Max angular momentum in pseudopotentials (lmaxx) =  3
     Message from routine cell_base_init:
     DEPRECATED: use true lattice parameter, not A to a.u. conversion factor
 end of file reached, closing tag not found
     file Er.pbe-spdn-kjpaw_psl.1.0.0.UPF: wavefunction(s)  6S 5D renormalized
     file Br.pbe-dn-kjpaw_psl.1.0.0.UPF: wavefunction(s)  4S 4P 3D renormalized

     Subspace diagonalization in iterative solution of the eigenvalue problem:
     a serial algorithm will be used

     Found symmetry operation: I + ( -0.5000 -0.5000  0.0000)
     This is a supercell, fractional translations are disabled
     Message from routine setup:
     using ibrav=0 with symmetry is DISCOURAGED, use correct ibrav instead

     bravais-lattice index     =            0
     lattice parameter (alat)  =       1.8897  a.u.
     unit-cell volume          =    3688.3023 (a.u.)^3
     number of atoms/cell      =           20
     number of atomic types    =            3
     number of electrons       =       244.00
     number of Kohn-Sham states=          146
     kinetic-energy cutoff     =     160.0000  Ry
     charge density cutoff     =     800.0000  Ry
     scf convergence threshold =      1.0E-08
     mixing beta               =       0.4000
     number of iterations used =            8  plain     mixing
     Exchange-correlation= SLA  PW   PBX  PBC
                           (   1   4   3   4   0   0   0)

     celldm(1)=   1.889726  celldm(2)=   0.000000  celldm(3)=   0.000000
     celldm(4)=   0.000000  celldm(5)=   0.000000  celldm(6)=   0.000000

     crystal axes: (cart. coord. in units of alat)
               a(1) = (   6.967356   0.000000   0.000000 )
               a(2) = (   0.000000  11.998880   0.000000 )
               a(3) = (  -2.324723   0.000000   6.537643 )

     reciprocal axes: (cart. coord. in units 2 pi/alat)
               b(1) = (  0.143526  0.000000  0.051037 )
               b(2) = (  0.000000  0.083341  0.000000 )
               b(3) = (  0.000000  0.000000  0.152960 )

     PseudoPot. # 1 for Li read from file:
     /central/groups/SeeGroup/qe_pseudopotentials/Li.pbe-s-kjpaw_psl.1.0.0.UPF
     MD5 check sum: cc502796ee09d8b62ac346ee26e59beb
     Pseudo is Projector augmented-wave, Zval =  3.0
     Generated using &quot;atomic&quot; code by A. Dal Corso  v.6.3
     Shape of augmentation charge: PSQ
     Using radial grid of 1017 points,  4 beta functions with:
                l(1) =   0
                l(2) =   0
                l(3) =   1
                l(4) =   1
     Q(r) pseudized with 0 coefficients

     PseudoPot. # 2 for Er read from file:
     /central/groups/SeeGroup/qe_pseudopotentials/Er.pbe-spdn-kjpaw_psl.1.0.0.UPF
     MD5 check sum: a923254af2aef992cff3e18bc73f2922
     Pseudo is Projector augmented-wave + core cor, Zval = 11.0
     Generated using &quot;atomic&quot; code by A. Dal Corso  v.6.2.2
     Shape of augmentation charge: PSQ
     Using radial grid of 1267 points,  6 beta functions with:
                l(1) =   0
                l(2) =   0
                l(3) =   1
                l(4) =   1
                l(5) =   2
                l(6) =   2
     Q(r) pseudized with 0 coefficients

     PseudoPot. # 3 for Br read from file:
     /central/groups/SeeGroup/qe_pseudopotentials/Br.pbe-dn-kjpaw_psl.1.0.0.UPF
     MD5 check sum: 4ca4ebabfd6065c7bb707b2ebe99e9b3
     Pseudo is Projector augmented-wave + core cor, Zval = 17.0
     Generated using &quot;atomic&quot; code by A. Dal Corso  v.6.3
     Shape of augmentation charge: PSQ
     Using radial grid of 1213 points,  6 beta functions with:
                l(1) =   0
                l(2) =   0
                l(3) =   1
                l(4) =   1
                l(5) =   2
                l(6) =   2
     Q(r) pseudized with 0 coefficients

     atomic species   valence    mass     pseudopotential
        Li             3.00     6.94100     Li( 1.00)
        Er            11.00   167.25900     Er( 1.00)
        Br            17.00    79.90400     Br( 1.00)

      2 Sym. Ops. (no inversion) found

   Cartesian axes

     site n.     atom                  positions (alat units)
         1           Li  tau(   1) = (   3.4836780   9.9564306   0.0000000  )
         2           Li  tau(   2) = (   3.4836780   2.0173957   0.0000000  )
         3           Li  tau(   3) = (   2.3213165   7.8846440   3.2688215  )
         4           Li  tau(   4) = (   0.0000000   3.9569906   0.0000000  )
         5           Li  tau(   5) = (   0.0000000   8.0168357   0.0000000  )
         6           Li  tau(   6) = (  -1.1623615   1.8852040   3.2688215  )
         7           Er  tau(   7) = (   3.4836780   5.9699947   0.0000000  )
         8           Er  tau(   8) = (   0.0000000  11.9694347   0.0000000  )
         9           Br  tau(   9) = (   3.4471523   9.9581465   5.0158758  )
        10           Br  tau(  10) = (   3.5847273   1.9854607   4.9258002  )
        11           Br  tau(  11) = (   1.0579057   1.9854607   1.6118428  )
        12           Br  tau(  12) = (   1.1954807   9.9581465   1.5217672  )
        13           Br  tau(  13) = (  -0.0150075   0.0698395   4.9769442  )
        14           Br  tau(  14) = (   4.6576405   0.0698395   1.5606988  )
        15           Br  tau(  15) = (  -0.0365257   3.9587065   5.0158758  )
        16           Br  tau(  16) = (   0.1010493   7.9849007   4.9258002  )
        17           Br  tau(  17) = (   4.5415837   7.9849007   1.6118428  )
        18           Br  tau(  18) = (   4.6791587   3.9587065   1.5217672  )
        19           Br  tau(  19) = (   3.4686705   6.0692795   4.9769442  )
        20           Br  tau(  20) = (   1.1739625   6.0692795   1.5606988  )

     number of k points=     4  Fermi-Dirac smearing, width (Ry)=  0.0070
                       cart. coord. in units 2pi/alat
        k(    1) = (   0.0000000   0.0000000   0.0000000), wk =   0.5000000
        k(    2) = (   0.0000000   0.0000000  -0.0764802), wk =   0.5000000
        k(    3) = (  -0.0717632   0.0000000  -0.0255183), wk =   0.5000000
        k(    4) = (  -0.0717632   0.0000000  -0.1019985), wk =   0.5000000

     Initial potential from superposition of free atoms

     starting charge  243.93496, renormalised to  244.00000
     Starting wfcs are  164 randomized atomic wfcs
     Checking if some PAW data can be deallocated...

     Self-consistent Calculation

     iteration #  1     ecut=   160.00 Ry     beta= 0.40
     Davidson diagonalization with overlap
     ethr =  1.00E-02,  avg # of iterations =  6.2

     Threshold (ethr) on eigenvalues was too large:
     Diagonalizing with lowered threshold

     Davidson diagonalization with overlap
     ethr =  1.20E-04,  avg # of iterations =  7.5

     total energy              =   -6740.52355019 Ry
     estimated scf accuracy    <       0.28692824 Ry

[...]

     total energy              =   -6740.55624249 Ry
     estimated scf accuracy    <       0.00000011 Ry

     iteration #  9     ecut=   160.00 Ry     beta= 0.40
     Davidson diagonalization with overlap
     ethr =  4.66E-11,  avg # of iterations =  2.0

     End of self-consistent calculation

          k = 0.0000 0.0000 0.0000 (126097 PWs)   bands (ev):

   -56.2625 -56.2625 -56.2624 -56.2624 -56.2595 -56.2595 -56.2594 -56.2594
   -56.2444 -56.2444 -56.2443 -56.2443 -56.2388 -56.2387 -56.2387 -56.2386
   -56.2363 -56.2363 -56.2362 -56.2362 -56.2251 -56.2251 -56.2250 -56.2250
   -56.2132 -56.2132 -56.2131 -56.2131 -56.2091 -56.2091 -56.2091 -56.2090
   -56.1981 -56.1980 -56.1980 -56.1980 -56.1952 -56.1952 -56.1952 -56.1952
   -56.1800 -56.1800 -56.1800 -56.1799 -56.1790 -56.1790 -56.1790 -56.1790
   -56.1770 -56.1770 -56.1770 -56.1770 -56.1714 -56.1714 -56.1714 -56.1714
   -56.1681 -56.1680 -56.1680 -56.1680 -46.9314 -46.9313 -42.0713 -42.0713
   -41.8037 -41.8037 -41.7772 -41.7771 -20.7609 -20.7608 -20.7538 -20.7537
   -20.7522 -20.7519 -10.7141 -10.5325 -10.3874 -10.2800 -10.2706 -10.2614
   -10.2287 -10.2240 -10.2164 -10.1520 -10.1466 -10.1212  -0.1636  -0.1544
     0.2230   0.2493   0.2681   0.4127   0.4600   0.6275   0.6774   0.7461
     0.8677   0.8679   0.8781   1.0032   1.1306   1.2470   1.2695   1.2730
     1.2788   1.4885   1.5308   1.7006   1.7461   1.9435   1.9860   2.0227
     2.0617   2.0788   2.1928   2.2463   2.3384   2.4690   2.5342   2.5343
     2.5797   2.5856   7.0502   7.3052   7.4483   7.4670   7.4680   7.5215
     7.5502   8.7283   8.7448   8.8124   9.1098   9.1660   9.3674   9.4014
     9.4783   9.7274   9.9190  10.3131  10.3280  10.3799  10.6724  10.8594
    10.9520  11.1036

          k = 0.0000 0.0000-0.0765 (126008 PWs)   bands (ev):

[...]

          k =-0.0718 0.0000-0.0255 (125998 PWs)   bands (ev):

[...]

          k =-0.0718 0.0000-0.1020 (126024 PWs)   bands (ev):

   -56.2625 -56.2625 -56.2624 -56.2624 -56.2595 -56.2595 -56.2594 -56.2594
   -56.2444 -56.2444 -56.2443 -56.2443 -56.2388 -56.2387 -56.2387 -56.2386
   -56.2363 -56.2363 -56.2362 -56.2362 -56.2251 -56.2251 -56.2250 -56.2250
   -56.2132 -56.2132 -56.2131 -56.2131 -56.2091 -56.2091 -56.2091 -56.2090
   -56.1981 -56.1980 -56.1980 -56.1980 -56.1952 -56.1952 -56.1952 -56.1952
   -56.1800 -56.1800 -56.1800 -56.1799 -56.1790 -56.1790 -56.1790 -56.1790
   -56.1770 -56.1770 -56.1770 -56.1770 -56.1714 -56.1714 -56.1714 -56.1714
   -56.1681 -56.1680 -56.1680 -56.1680 -46.9314 -46.9313 -42.0713 -42.0713
   -41.8037 -41.8037 -41.7772 -41.7771 -20.7609 -20.7608 -20.7540 -20.7539
   -20.7521 -20.7520 -10.4727 -10.4727 -10.3441 -10.3441 -10.3142 -10.3142
   -10.2688 -10.2688 -10.2195 -10.2195 -10.1648 -10.1647  -0.0735  -0.0735
     0.1927   0.1927   0.3287   0.3287   0.3950   0.3950   0.6132   0.6132
     0.8662   0.8662   1.1828   1.1828   1.3025   1.3025   1.5733   1.5734
     1.6466   1.6466   1.7024   1.7024   1.8263   1.8263   1.8516   1.8517
     2.0492   2.0492   2.1010   2.1010   2.2859   2.2860   2.3142   2.3142
     2.4626   2.4626   7.1534   7.1535   7.2217   7.2217   7.2722   7.2723
     8.6336   8.6336   9.0258   9.0258   9.1866   9.1866   9.3182   9.3182
     9.5702   9.5702   9.7602   9.7602  10.0974  10.0974  10.4015  10.4015
    11.0428  11.0428

     the Fermi energy is     4.8736 ev

!    total energy              =   -6740.55624259 Ry

     total all-electron energy =   -114993.572200 Ry
     estimated scf accuracy    <          9.1E-09 Ry
     smearing contrib. (-TS)   =      -0.00000000 Ry
     internal energy E=F+TS    =   -6740.55624259 Ry

     The total energy is F=E-TS. E is the sum of the following terms:
     one-electron contribution =   -3515.91641686 Ry
     hartree contribution      =    1688.05681992 Ry
     xc contribution           =    -503.23340705 Ry
     ewald contribution        =   -1690.68325647 Ry
     one-center paw contrib.   =   -2718.77998213 Ry

     convergence has been achieved in   9 iterations

     Forces acting on atoms (cartesian axes, Ry/au):

     atom    1 type  1   force =     0.00000000   -0.00211029    0.00000000
     atom    2 type  1   force =     0.00000000    0.00043012    0.00000000
     atom    3 type  1   force =     0.00000000   -0.00046979    0.00000000
     atom    4 type  1   force =     0.00000000   -0.00210957    0.00000000
     atom    5 type  1   force =     0.00000000    0.00043661    0.00000000
     atom    6 type  1   force =     0.00000000   -0.00047301    0.00000000
     atom    7 type  2   force =     0.00000000    0.00077856    0.00000000
     atom    8 type  2   force =     0.00000000    0.00078581    0.00000000
     atom    9 type  3   force =     0.00096028    0.00136615    0.00452084
     atom   10 type  3   force =     0.00374161   -0.00231339    0.00167090
     atom   11 type  3   force =    -0.00374161   -0.00231339   -0.00167090
     atom   12 type  3   force =    -0.00096028    0.00136615   -0.00452084
     atom   13 type  3   force =    -0.00355989    0.00156951    0.00348685
     atom   14 type  3   force =     0.00355989    0.00156951   -0.00348685
     atom   15 type  3   force =     0.00095492    0.00133663    0.00454486
     atom   16 type  3   force =     0.00371050   -0.00223363    0.00165357
     atom   17 type  3   force =    -0.00371050   -0.00223363   -0.00165357
     atom   18 type  3   force =    -0.00095492    0.00133663   -0.00454486
     atom   19 type  3   force =    -0.00349906    0.00164051    0.00348462
     atom   20 type  3   force =     0.00349906    0.00164051   -0.00348462

     Total force =     0.017324     Total SCF correction =     0.000391

     Computing stress (Cartesian axis) and pressure

          total   stress  (Ry/bohr**3)                   (kbar)     P=       -3.70
  -0.00003535   0.00000000   0.00000187           -5.20        0.00        0.28
   0.00000000  -0.00001631   0.00000000            0.00       -2.40        0.00
   0.00000187   0.00000000  -0.00002389            0.28        0.00       -3.51

     Writing output data file ./pwscf.save/

     General routines

     Parallel routines

   This run was terminated on:  17:15:18   2Aug2021

   JOB DONE.