     Program PWSCF v.6.7MaX starts on 26Jul2021 at 13:56:40

     K-points division:     npool     =       2
     R & G space division:  proc/nbgrp/npool/nimage =      24
     Waiting for input...
     Reading input from standard input
Warning: card &CELL ignored
Warning: card CELL_DYNAMICS             = 'BFGS', ignored
Warning: card PRESS                     = '0.0', ignored
Warning: card PRESS_CONV_THR            = '0.5', ignored
Warning: card / ignored
     Message from routine read_cards :
     DEPRECATED: no units specified in CELL_PARAMETERS card

     Current dimensions of program PWSCF are:
     Max number of different atomic species (ntypx) = 10
     Max number of k-points (npk) =  40000
     Max angular momentum in pseudopotentials (lmaxx) =  3
     Message from routine cell_base_init:
     DEPRECATED: use true lattice parameter, not A to a.u. conversion factor
 end of file reached, closing tag not found
     file Er.pbe-spdn-kjpaw_psl.1.0.0.UPF: wavefunction(s)  6S 5D renormalized
     file Br.pbe-dn-kjpaw_psl.1.0.0.UPF: wavefunction(s)  4S 4P 3D renormalized

     Subspace diagonalization in iterative solution of the eigenvalue problem:
     a serial algorithm will be used

     Found symmetry operation: I + ( -0.5000 -0.5000  0.0000)
     This is a supercell, fractional translations are disabled
     Message from routine setup:
     using ibrav=0 with symmetry is DISCOURAGED, use correct ibrav instead

     bravais-lattice index     =            0
     lattice parameter (alat)  =       1.8897  a.u.
     unit-cell volume          =    3688.3023 (a.u.)^3
     number of atoms/cell      =           20
     number of atomic types    =            3
     number of electrons       =       244.00
     number of Kohn-Sham states=          146
     kinetic-energy cutoff     =     160.0000  Ry
     charge density cutoff     =     800.0000  Ry
     scf convergence threshold =      1.0E-08
     mixing beta               =       0.4000
     number of iterations used =            8  plain     mixing
     Exchange-correlation= SLA  PW   PBX  PBC
                           (   1   4   3   4   0   0   0)

     celldm(1)=   1.889726  celldm(2)=   0.000000  celldm(3)=   0.000000
     celldm(4)=   0.000000  celldm(5)=   0.000000  celldm(6)=   0.000000

     crystal axes: (cart. coord. in units of alat)
               a(1) = (   6.967356   0.000000   0.000000 )
               a(2) = (   0.000000  11.998880   0.000000 )
               a(3) = (  -2.324723   0.000000   6.537643 )

     reciprocal axes: (cart. coord. in units 2 pi/alat)
               b(1) = (  0.143526  0.000000  0.051037 )
               b(2) = (  0.000000  0.083341  0.000000 )
               b(3) = (  0.000000  0.000000  0.152960 )

     PseudoPot. # 1 for Li read from file:
     /central/groups/SeeGroup/qe_pseudopotentials/Li.pbe-s-kjpaw_psl.1.0.0.UPF
     MD5 check sum: cc502796ee09d8b62ac346ee26e59beb
     Pseudo is Projector augmented-wave, Zval =  3.0
     Generated using &quot;atomic&quot; code by A. Dal Corso  v.6.3
     Shape of augmentation charge: PSQ
     Using radial grid of 1017 points,  4 beta functions with:
                l(1) =   0
                l(2) =   0
                l(3) =   1
                l(4) =   1
     Q(r) pseudized with 0 coefficients

     PseudoPot. # 2 for Er read from file:
     /central/groups/SeeGroup/qe_pseudopotentials/Er.pbe-spdn-kjpaw_psl.1.0.0.UPF
     MD5 check sum: a923254af2aef992cff3e18bc73f2922
     Pseudo is Projector augmented-wave + core cor, Zval = 11.0
     Generated using &quot;atomic&quot; code by A. Dal Corso  v.6.2.2
     Shape of augmentation charge: PSQ
     Using radial grid of 1267 points,  6 beta functions with:
                l(1) =   0
                l(2) =   0
                l(3) =   1
                l(4) =   1
                l(5) =   2
                l(6) =   2
     Q(r) pseudized with 0 coefficients

     PseudoPot. # 3 for Br read from file:
     /central/groups/SeeGroup/qe_pseudopotentials/Br.pbe-dn-kjpaw_psl.1.0.0.UPF
     MD5 check sum: 4ca4ebabfd6065c7bb707b2ebe99e9b3
     Pseudo is Projector augmented-wave + core cor, Zval = 17.0
     Generated using &quot;atomic&quot; code by A. Dal Corso  v.6.3
     Shape of augmentation charge: PSQ
     Using radial grid of 1213 points,  6 beta functions with:
                l(1) =   0
                l(2) =   0
                l(3) =   1
                l(4) =   1
                l(5) =   2
                l(6) =   2
     Q(r) pseudized with 0 coefficients

     atomic species   valence    mass     pseudopotential
        Li             3.00     6.94100     Li( 1.00)
        Er            11.00   167.25900     Er( 1.00)
        Br            17.00    79.90400     Br( 1.00)

      2 Sym. Ops. (no inversion) found

   Cartesian axes

     site n.     atom                  positions (alat units)
         1           Li  tau(   1) = (   3.4836780   9.9564306   0.0000000  )
         2           Li  tau(   2) = (   3.4836780   2.0173957   0.0000000  )
         3           Li  tau(   3) = (   2.3213165   7.8846440   3.2688215  )
         4           Li  tau(   4) = (   0.0000000   3.9569906   0.0000000  )
         5           Li  tau(   5) = (   0.0000000   8.0168357   0.0000000  )
         6           Li  tau(   6) = (  -1.1623615   1.8852040   3.2688215  )
         7           Er  tau(   7) = (   3.4836780   5.9699947   0.0000000  )
         8           Er  tau(   8) = (   0.0000000  11.9694347   0.0000000  )
         9           Br  tau(   9) = (   3.4471523   9.9581465   5.0158758  )
        10           Br  tau(  10) = (   3.5847273   1.9854607   4.9258002  )
        11           Br  tau(  11) = (   1.0579057   1.9854607   1.6118428  )
        12           Br  tau(  12) = (   1.1954807   9.9581465   1.5217672  )
        13           Br  tau(  13) = (  -0.0150075   0.0698395   4.9769442  )
        14           Br  tau(  14) = (   4.6576405   0.0698395   1.5606988  )
        15           Br  tau(  15) = (  -0.0365257   3.9587065   5.0158758  )
        16           Br  tau(  16) = (   0.1010493   7.9849007   4.9258002  )
        17           Br  tau(  17) = (   4.5415837   7.9849007   1.6118428  )
        18           Br  tau(  18) = (   4.6791587   3.9587065   1.5217672  )
        19           Br  tau(  19) = (   3.4686705   6.0692795   4.9769442  )
        20           Br  tau(  20) = (   1.1739625   6.0692795   1.5606988  )

     number of k points=     8  Fermi-Dirac smearing, width (Ry)=  0.0070
                       cart. coord. in units 2pi/alat
        k(    1) = (   0.0000000   0.0000000   0.0000000), wk =   0.2500000
        k(    2) = (   0.0000000   0.0000000  -0.0764802), wk =   0.2500000
        k(    3) = (   0.0000000  -0.0416706   0.0000000), wk =   0.2500000
        k(    4) = (   0.0000000  -0.0416706  -0.0764802), wk =   0.2500000
        k(    5) = (  -0.0717632   0.0000000  -0.0255183), wk =   0.2500000
        k(    6) = (  -0.0717632   0.0000000  -0.1019985), wk =   0.2500000
        k(    7) = (  -0.0717632  -0.0416706  -0.0255183), wk =   0.2500000
        k(    8) = (  -0.0717632  -0.0416706  -0.1019985), wk =   0.2500000

     Initial potential from superposition of free atoms

     starting charge  243.93496, renormalised to  244.00000
     Starting wfcs are  164 randomized atomic wfcs
     Checking if some PAW data can be deallocated...

     Self-consistent Calculation

     iteration #  1     ecut=   160.00 Ry     beta= 0.40
     Davidson diagonalization with overlap
     ethr =  1.00E-02,  avg # of iterations =  5.6

     Threshold (ethr) on eigenvalues was too large:
     Diagonalizing with lowered threshold

     Davidson diagonalization with overlap
     ethr =  1.18E-04,  avg # of iterations =  7.0

     total energy              =   -6740.52942588 Ry
     estimated scf accuracy    <       0.28385314 Ry

[...]

     total energy              =   -6740.56173674 Ry
     estimated scf accuracy    <       0.00000013 Ry

     iteration #  9     ecut=   160.00 Ry     beta= 0.40
     Davidson diagonalization with overlap
     ethr =  5.53E-11,  avg # of iterations =  2.0

     End of self-consistent calculation

          k = 0.0000 0.0000 0.0000 (126097 PWs)   bands (ev):

   -56.2714 -56.2714 -56.2713 -56.2713 -56.2685 -56.2685 -56.2684 -56.2684
   -56.2537 -56.2537 -56.2536 -56.2536 -56.2485 -56.2485 -56.2484 -56.2484
   -56.2461 -56.2461 -56.2460 -56.2460 -56.2331 -56.2331 -56.2331 -56.2331
   -56.2209 -56.2209 -56.2209 -56.2209 -56.2173 -56.2173 -56.2173 -56.2173
   -56.2065 -56.2065 -56.2064 -56.2064 -56.2035 -56.2035 -56.2035 -56.2035
   -56.1879 -56.1879 -56.1879 -56.1879 -56.1869 -56.1869 -56.1869 -56.1869
   -56.1863 -56.1863 -56.1862 -56.1862 -56.1800 -56.1800 -56.1800 -56.1800
   -56.1771 -56.1770 -56.1770 -56.1770 -46.9332 -46.9331 -42.0701 -42.0700
   -41.8005 -41.8005 -41.7721 -41.7720 -20.7610 -20.7609 -20.7557 -20.7555
   -20.7554 -20.7554 -10.7194 -10.5382 -10.3924 -10.2857 -10.2760 -10.2667
   -10.2342 -10.2296 -10.2220 -10.1575 -10.1521 -10.1265  -0.1669  -0.1578
     0.2195   0.2459   0.2649   0.4090   0.4563   0.6235   0.6739   0.7426
     0.8636   0.8637   0.8745   0.9999   1.1265   1.2428   1.2655   1.2691
     1.2745   1.4844   1.5268   1.6967   1.7420   1.9398   1.9823   2.0188
     2.0573   2.0748   2.1891   2.2426   2.3341   2.4644   2.5298   2.5302
     2.5750   2.5811   7.0473   7.3027   7.4454   7.4654   7.4668   7.5187
     7.5476   8.7253   8.7428   8.8093   9.1074   9.1640   9.3652   9.3991
     9.4765   9.7247   9.9181  10.3115  10.3260  10.3777  10.6709  10.8578
    10.9502  11.1015

[...]

          k = 0.0000-0.0417-0.0765 (126040 PWs)   bands (ev):

[...]

          k =-0.0718 0.0000-0.0255 (125998 PWs)   bands (ev):

[...]

          k =-0.0718-0.0417-0.1020 (126044 PWs)   bands (ev):

   -56.2714 -56.2714 -56.2713 -56.2713 -56.2685 -56.2685 -56.2684 -56.2684
   -56.2537 -56.2537 -56.2536 -56.2536 -56.2485 -56.2485 -56.2484 -56.2484
   -56.2461 -56.2461 -56.2460 -56.2460 -56.2331 -56.2331 -56.2331 -56.2331
   -56.2209 -56.2209 -56.2209 -56.2209 -56.2173 -56.2173 -56.2173 -56.2173
   -56.2065 -56.2065 -56.2064 -56.2064 -56.2035 -56.2035 -56.2035 -56.2035
   -56.1879 -56.1879 -56.1879 -56.1879 -56.1869 -56.1869 -56.1869 -56.1869
   -56.1863 -56.1863 -56.1862 -56.1862 -56.1800 -56.1800 -56.1800 -56.1800
   -56.1771 -56.1770 -56.1770 -56.1770 -46.9332 -46.9331 -42.0701 -42.0700
   -41.8005 -41.8005 -41.7721 -41.7720 -20.7611 -20.7610 -20.7557 -20.7557
   -20.7555 -20.7555 -10.4634 -10.4634 -10.3844 -10.3844 -10.3243 -10.3243
   -10.2465 -10.2465 -10.2140 -10.2140 -10.1840 -10.1840  -0.2045  -0.2045
     0.2442   0.2442   0.3317   0.3317   0.4950   0.4950   0.6875   0.6875
     0.9572   0.9572   1.1132   1.1132   1.2163   1.2163   1.5215   1.5215
     1.5504   1.5504   1.6840   1.6840   1.7421   1.7421   1.9857   1.9858
     2.1153   2.1153   2.1375   2.1375   2.2745   2.2745   2.3082   2.3083
     2.3687   2.3687   7.0315   7.0315   7.2998   7.2999   7.3555   7.3556
     8.6879   8.6879   8.7790   8.7790   9.1455   9.1455   9.2488   9.2489
     9.7493   9.7493  10.1594  10.1595  10.6124  10.6124  10.7747  10.7747
    10.8721  10.8721

     the Fermi energy is     4.8132 ev

!    total energy              =   -6740.56173684 Ry

     total all-electron energy =   -114993.577695 Ry
     estimated scf accuracy    <          8.4E-09 Ry
     smearing contrib. (-TS)   =      -0.00000000 Ry
     internal energy E=F+TS    =   -6740.56173684 Ry

     The total energy is F=E-TS. E is the sum of the following terms:
     one-electron contribution =   -3515.82418805 Ry
     hartree contribution      =    1687.95163250 Ry
     xc contribution           =    -503.22305145 Ry
     ewald contribution        =   -1690.68325647 Ry
     one-center paw contrib.   =   -2718.78287338 Ry

     convergence has been achieved in   9 iterations

     Forces acting on atoms (cartesian axes, Ry/au):

     atom    1 type  1   force =     0.00000000   -0.00208968    0.00000000
     atom    2 type  1   force =     0.00000000    0.00042488    0.00000000
     atom    3 type  1   force =     0.00000000   -0.00042571    0.00000000
     atom    4 type  1   force =     0.00000000   -0.00208946    0.00000000
     atom    5 type  1   force =     0.00000000    0.00043025    0.00000000
     atom    6 type  1   force =     0.00000000   -0.00042870    0.00000000
     atom    7 type  2   force =     0.00000000    0.00079481    0.00000000
     atom    8 type  2   force =     0.00000000    0.00080010    0.00000000
     atom    9 type  3   force =     0.00086443    0.00138797    0.00403386
     atom   10 type  3   force =     0.00330489   -0.00227651    0.00131878
     atom   11 type  3   force =    -0.00330489   -0.00227651   -0.00131878
     atom   12 type  3   force =    -0.00086443    0.00138797   -0.00403386
     atom   13 type  3   force =    -0.00329139    0.00149880    0.00346860
     atom   14 type  3   force =     0.00329139    0.00149880   -0.00346860
     atom   15 type  3   force =     0.00086156    0.00135583    0.00406408
     atom   16 type  3   force =     0.00328084   -0.00222133    0.00129885
     atom   17 type  3   force =    -0.00328084   -0.00222133   -0.00129885
     atom   18 type  3   force =    -0.00086156    0.00135583   -0.00406408
     atom   19 type  3   force =    -0.00323913    0.00154699    0.00346553
     atom   20 type  3   force =     0.00323913    0.00154699   -0.00346553

     Total force =     0.016040     Total SCF correction =     0.000364

     Computing stress (Cartesian axis) and pressure

          total   stress  (Ry/bohr**3)                   (kbar)     P=       -4.34
  -0.00003275   0.00000000   0.00000242           -4.82        0.00        0.36
   0.00000000  -0.00003483   0.00000000            0.00       -5.12        0.00
   0.00000242   0.00000000  -0.00002085            0.36        0.00       -3.07

     Writing output data file ./pwscf.save/

     General routines

     Parallel routines

   This run was terminated on:  13:59:42  26Jul2021

   JOB DONE.