     Program PWSCF v.6.7MaX starts on 26Jul2021 at 16:42:23

     K-points division:     npool     =       2
     R & G space division:  proc/nbgrp/npool/nimage =      24
     Waiting for input...
     Reading input from standard input
     Message from routine read_cards :
     DEPRECATED: no units specified in CELL_PARAMETERS card

     Current dimensions of program PWSCF are:
     Max number of different atomic species (ntypx) = 10
     Max number of k-points (npk) =  40000
     Max angular momentum in pseudopotentials (lmaxx) =  3
     Message from routine cell_base_init:
     DEPRECATED: use true lattice parameter, not A to a.u. conversion factor
 end of file reached, closing tag not found
     file Er.pbe-spdn-kjpaw_psl.1.0.0.UPF: wavefunction(s)  6S 5D renormalized
     file Br.pbe-dn-kjpaw_psl.1.0.0.UPF: wavefunction(s)  4S 4P 3D renormalized

     Subspace diagonalization in iterative solution of the eigenvalue problem:
     a serial algorithm will be used

     Found symmetry operation: I + ( -0.5000 -0.5000  0.0000)
     This is a supercell, fractional translations are disabled
     Message from routine setup:
     using ibrav=0 with symmetry is DISCOURAGED, use correct ibrav instead

     bravais-lattice index     =            0
     lattice parameter (alat)  =       1.8897  a.u.
     unit-cell volume          =    3688.3023 (a.u.)^3
     number of atoms/cell      =           20
     number of atomic types    =            3
     number of electrons       =       244.00
     number of Kohn-Sham states=          146
     kinetic-energy cutoff     =     120.0000  Ry
     charge density cutoff     =     600.0000  Ry
     scf convergence threshold =      1.0E-08
     mixing beta               =       0.4000
     number of iterations used =            8  plain     mixing
     energy convergence thresh.=      1.0E-06
     force convergence thresh. =      1.0E-05
     press convergence thresh. =      5.0E-01
     Exchange-correlation= SLA  PW   PBX  PBC
                           (   1   4   3   4   0   0   0)
     nstep                     =          100

     celldm(1)=   1.889726  celldm(2)=   0.000000  celldm(3)=   0.000000
     celldm(4)=   0.000000  celldm(5)=   0.000000  celldm(6)=   0.000000

     crystal axes: (cart. coord. in units of alat)
               a(1) = (   6.967356   0.000000   0.000000 )
               a(2) = (   0.000000  11.998880   0.000000 )
               a(3) = (  -2.324723   0.000000   6.537643 )

     reciprocal axes: (cart. coord. in units 2 pi/alat)
               b(1) = (  0.143526  0.000000  0.051037 )
               b(2) = (  0.000000  0.083341  0.000000 )
               b(3) = (  0.000000  0.000000  0.152960 )

     PseudoPot. # 1 for Li read from file:
     /central/groups/SeeGroup/qe_pseudopotentials/Li.pbe-s-kjpaw_psl.1.0.0.UPF
     MD5 check sum: cc502796ee09d8b62ac346ee26e59beb
     Pseudo is Projector augmented-wave, Zval =  3.0
     Generated using &quot;atomic&quot; code by A. Dal Corso  v.6.3
     Shape of augmentation charge: PSQ
     Using radial grid of 1017 points,  4 beta functions with:
                l(1) =   0
                l(2) =   0
                l(3) =   1
                l(4) =   1
     Q(r) pseudized with 0 coefficients

     PseudoPot. # 2 for Er read from file:
     /central/groups/SeeGroup/qe_pseudopotentials/Er.pbe-spdn-kjpaw_psl.1.0.0.UPF
     MD5 check sum: a923254af2aef992cff3e18bc73f2922
     Pseudo is Projector augmented-wave + core cor, Zval = 11.0
     Generated using &quot;atomic&quot; code by A. Dal Corso  v.6.2.2
     Shape of augmentation charge: PSQ
     Using radial grid of 1267 points,  6 beta functions with:
                l(1) =   0
                l(2) =   0
                l(3) =   1
                l(4) =   1
                l(5) =   2
                l(6) =   2
     Q(r) pseudized with 0 coefficients

     PseudoPot. # 3 for Br read from file:
     /central/groups/SeeGroup/qe_pseudopotentials/Br.pbe-dn-kjpaw_psl.1.0.0.UPF
     MD5 check sum: 4ca4ebabfd6065c7bb707b2ebe99e9b3
     Pseudo is Projector augmented-wave + core cor, Zval = 17.0
     Generated using &quot;atomic&quot; code by A. Dal Corso  v.6.3
     Shape of augmentation charge: PSQ
     Using radial grid of 1213 points,  6 beta functions with:
                l(1) =   0
                l(2) =   0
                l(3) =   1
                l(4) =   1
                l(5) =   2
                l(6) =   2
     Q(r) pseudized with 0 coefficients

     atomic species   valence    mass     pseudopotential
        Li             3.00     6.94100     Li( 1.00)
        Er            11.00   167.25900     Er( 1.00)
        Br            17.00    79.90400     Br( 1.00)

      2 Sym. Ops. (no inversion) found

   Cartesian axes

     site n.     atom                  positions (alat units)
         1           Li  tau(   1) = (   3.4836780   9.9564306   0.0000000  )
         2           Li  tau(   2) = (   3.4836780   2.0173957   0.0000000  )
         3           Li  tau(   3) = (   2.3213165   7.8846440   3.2688215  )
         4           Li  tau(   4) = (   0.0000000   3.9569906   0.0000000  )
         5           Li  tau(   5) = (   0.0000000   8.0168357   0.0000000  )
         6           Li  tau(   6) = (  -1.1623615   1.8852040   3.2688215  )
         7           Er  tau(   7) = (   3.4836780   5.9699947   0.0000000  )
         8           Er  tau(   8) = (   0.0000000  11.9694347   0.0000000  )
         9           Br  tau(   9) = (   3.4471523   9.9581465   5.0158758  )
        10           Br  tau(  10) = (   3.5847273   1.9854607   4.9258002  )
        11           Br  tau(  11) = (   1.0579057   1.9854607   1.6118428  )
        12           Br  tau(  12) = (   1.1954807   9.9581465   1.5217672  )
        13           Br  tau(  13) = (  -0.0150075   0.0698395   4.9769442  )
        14           Br  tau(  14) = (   4.6576405   0.0698395   1.5606988  )
        15           Br  tau(  15) = (  -0.0365257   3.9587065   5.0158758  )
        16           Br  tau(  16) = (   0.1010493   7.9849007   4.9258002  )
        17           Br  tau(  17) = (   4.5415837   7.9849007   1.6118428  )
        18           Br  tau(  18) = (   4.6791587   3.9587065   1.5217672  )
        19           Br  tau(  19) = (   3.4686705   6.0692795   4.9769442  )
        20           Br  tau(  20) = (   1.1739625   6.0692795   1.5606988  )

     number of k points=    20  Fermi-Dirac smearing, width (Ry)=  0.0070
                       cart. coord. in units 2pi/alat
        k(    1) = (   0.0000000   0.0000000   0.0000000), wk =   0.0625000
        k(    2) = (   0.0000000   0.0000000   0.0382401), wk =   0.1250000
        k(    3) = (   0.0000000   0.0000000  -0.0764802), wk =   0.0625000
        k(    4) = (   0.0000000  -0.0416706   0.0000000), wk =   0.0625000
        k(    5) = (   0.0000000  -0.0416706   0.0382401), wk =   0.1250000
        k(    6) = (   0.0000000  -0.0416706  -0.0764802), wk =   0.0625000
        k(    7) = (   0.0358816   0.0000000   0.0127592), wk =   0.1250000
        k(    8) = (   0.0358816   0.0000000   0.0509992), wk =   0.1250000
        k(    9) = (   0.0358816   0.0000000  -0.0637210), wk =   0.1250000
        k(   10) = (   0.0358816   0.0000000  -0.0254809), wk =   0.1250000
        k(   11) = (   0.0358816  -0.0416706   0.0127592), wk =   0.1250000
        k(   12) = (   0.0358816  -0.0416706   0.0509992), wk =   0.1250000
        k(   13) = (   0.0358816  -0.0416706  -0.0637210), wk =   0.1250000
        k(   14) = (   0.0358816  -0.0416706  -0.0254809), wk =   0.1250000
        k(   15) = (  -0.0717632   0.0000000  -0.0255183), wk =   0.0625000
        k(   16) = (  -0.0717632   0.0000000   0.0127218), wk =   0.1250000
        k(   17) = (  -0.0717632   0.0000000  -0.1019985), wk =   0.0625000
        k(   18) = (  -0.0717632  -0.0416706  -0.0255183), wk =   0.0625000
        k(   19) = (  -0.0717632  -0.0416706   0.0127218), wk =   0.1250000
        k(   20) = (  -0.0717632  -0.0416706  -0.1019985), wk =   0.0625000

     Initial potential from superposition of free atoms

     starting charge  243.93496, renormalised to  244.00000
     Starting wfcs are  164 randomized atomic wfcs
     Checking if some PAW data can be deallocated...

     Self-consistent Calculation

     iteration #  1     ecut=   120.00 Ry     beta= 0.40
     Davidson diagonalization with overlap
     ethr =  1.00E-02,  avg # of iterations =  5.5

     Threshold (ethr) on eigenvalues was too large:
     Diagonalizing with lowered threshold

     Davidson diagonalization with overlap
     ethr =  1.17E-04,  avg # of iterations =  9.3

     total energy              =   -6740.52983094 Ry
     estimated scf accuracy    <       0.28241556 Ry

[...]

     End of self-consistent calculation

          k = 0.0000 0.0000 0.0000 ( 81869 PWs)   bands (ev):

   -56.2765 -56.2765 -56.2765 -56.2764 -56.2736 -56.2736 -56.2735 -56.2735
   -56.2588 -56.2588 -56.2587 -56.2587 -56.2537 -56.2536 -56.2536 -56.2536
   -56.2512 -56.2512 -56.2512 -56.2512 -56.2377 -56.2376 -56.2376 -56.2376
   -56.2256 -56.2255 -56.2255 -56.2255 -56.2219 -56.2219 -56.2219 -56.2218
   -56.2108 -56.2108 -56.2108 -56.2107 -56.2079 -56.2079 -56.2078 -56.2078
   -56.1927 -56.1927 -56.1926 -56.1926 -56.1917 -56.1917 -56.1917 -56.1917
   -56.1907 -56.1907 -56.1907 -56.1906 -56.1846 -56.1846 -56.1846 -56.1845
   -56.1816 -56.1816 -56.1816 -56.1816 -46.9321 -46.9320 -42.0680 -42.0680
   -41.7994 -41.7993 -41.7709 -41.7709 -20.7600 -20.7599 -20.7546 -20.7546
   -20.7545 -20.7543 -10.7218 -10.5408 -10.3947 -10.2883 -10.2785 -10.2692
   -10.2366 -10.2319 -10.2243 -10.1600 -10.1546 -10.1288  -0.1684  -0.1594
     0.2179   0.2442   0.2633   0.4075   0.4549   0.6221   0.6722   0.7410
     0.8621   0.8623   0.8731   0.9982   1.1250   1.2411   1.2641   1.2678
     1.2728   1.4827   1.5252   1.6950   1.7401   1.9380   1.9804   2.0168
     2.0552   2.0730   2.1871   2.2405   2.3322   2.4622   2.5280   2.5281
     2.5730   2.5792   7.0473   7.3026   7.4452   7.4650   7.4669   7.5186
     7.5471   8.7245   8.7421   8.8085   9.1065   9.1638   9.3651   9.3989
     9.4758   9.7236   9.9171  10.3104  10.3252  10.3769  10.6701  10.8570
    10.9490  11.1005

[...]

          k =-0.0718 0.0000-0.0255 ( 81844 PWs)   bands (ev):

[...]

     the Fermi energy is     4.8540 ev

!    total energy              =   -6740.56179589 Ry

     total all-electron energy =   -114993.577754 Ry
     estimated scf accuracy    <          8.6E-09 Ry
     smearing contrib. (-TS)   =      -0.00000000 Ry
     internal energy E=F+TS    =   -6740.56179589 Ry

     The total energy is F=E-TS. E is the sum of the following terms:
     one-electron contribution =   -3515.77526823 Ry
     hartree contribution      =    1687.88641079 Ry
     xc contribution           =    -503.21487645 Ry
     ewald contribution        =   -1690.68325647 Ry
     one-center paw contrib.   =   -2718.77480554 Ry

     convergence has been achieved in   9 iterations

     Forces acting on atoms (cartesian axes, Ry/au):

     atom    1 type  1   force =     0.00000000   -0.00206172    0.00000000
     atom    2 type  1   force =     0.00000000    0.00042144    0.00000000
[...]
     new conv_thr            =            1.0E-10 Ry

     new unit-cell volume =   3678.29202 a.u.^3 (   545.06664 Ang^3 )
     density =      4.06710 g/cm^3

[...]

ATOMIC_POSITIONS (crystal)
Li            0.5000000000        0.8246940393        0.0000000000
Li            0.5000000000        0.1706144282        0.0000000000
Li            0.5000000000        0.6521104348        0.5000000000
Li            0.0000000000        0.3246942450        0.0000000000
Li            0.0000000000        0.6706198619        0.0000000000
Li            0.0000000000        0.1521141715        0.5000000000
Er            0.5000000000        0.4985215886        0.0000000000
Er            0.0000000000        0.9985191566        0.0000000000
Br            0.7526805182        0.8305541050        0.7733532411
Br            0.7702821064        0.1654331291        0.7503904509
Br            0.2297178936        0.1654331291        0.2496095491
Br            0.2473194818        0.8305541050        0.2266467589
Br            0.2541988070        0.0085388802        0.7653592405
Br            0.7458011930        0.0085388802        0.2346407595
Br            0.2526814083        0.3305555722        0.7733524540
Br            0.2702817195        0.6654336048        0.7503864287
Br            0.7297182805        0.6654336048        0.2496135713
Br            0.7473185917        0.3305555722        0.2266475460
Br            0.7542004610        0.5085417458        0.7653603253
Br            0.2457995390        0.5085417458        0.2346396747

     Writing output data file ./Li3ErBr6_mp-1222492_conventional_standard_vc-relax.save/
     charge density from previous step
     extrapolated charge  244.00028, renormalised to  244.00000

[...]

     Threshold (ethr) on eigenvalues was too large:
     Diagonalizing with lowered threshold

     Davidson diagonalization with overlap
     ethr =  2.80E-09,  avg # of iterations =  1.4

[...]

     Message from routine bfgs:
     history already reset at previous step: stopping
     Energy error            =      2.5E-08
     Gradient error          =      5.7E-05
     Cell gradient error     =      1.0E-07

     bfgs converged in  57 scf cycles and  53 bfgs steps
     (criteria: energy <  1.0E-06 Ry, force <  1.0E-05Ry/Bohr, cell <  5.0E-01kbar)

     End of BFGS Geometry Optimization

     Final enthalpy =   -6740.5638319284 Ry

     File ./Li3ErBr6_mp-1222492_conventional_standard_vc-relax.bfgs deleted, as requested
Begin final coordinates
     new unit-cell volume =   3678.29202 a.u.^3 (   545.06664 Ang^3 )
     density =      4.06710 g/cm^3

CELL_PARAMETERS (alat=  1.88972612)
   6.945531302   0.000000000   0.017458583
   0.000000000  11.953903708   0.000000000
  -2.301114364   0.000000000   6.559210496

ATOMIC_POSITIONS (crystal)
Li            0.5000000000        0.8246940393        0.0000000000
Li            0.5000000000        0.1706144282        0.0000000000
Li            0.5000000000        0.6521104348        0.5000000000
Li            0.0000000000        0.3246942450        0.0000000000
Li            0.0000000000        0.6706198619        0.0000000000
Li            0.0000000000        0.1521141715        0.5000000000
Er            0.5000000000        0.4985215886        0.0000000000
Er            0.0000000000        0.9985191566        0.0000000000
Br            0.7526805182        0.8305541050        0.7733532411
Br            0.7702821064        0.1654331291        0.7503904509
Br            0.2297178936        0.1654331291        0.2496095491
Br            0.2473194818        0.8305541050        0.2266467589
Br            0.2541988070        0.0085388802        0.7653592405
Br            0.7458011930        0.0085388802        0.2346407595
Br            0.2526814083        0.3305555722        0.7733524540
Br            0.2702817195        0.6654336048        0.7503864287
Br            0.7297182805        0.6654336048        0.2496135713
Br            0.7473185917        0.3305555722        0.2266475460
Br            0.7542004610        0.5085417458        0.7653603253
Br            0.2457995390        0.5085417458        0.2346396747
End final coordinates

     Writing output data file ./Li3ErBr6_mp-1222492_conventional_standard_vc-relax.save/

     Final scf calculation at the relaxed structure.
     The G-vectors are recalculated for the final unit cell
     Results may differ from those at the preceding step.

     bravais-lattice index     =            0
     lattice parameter (alat)  =       1.8897  a.u.
     unit-cell volume          =    3678.2920 (a.u.)^3
     number of atoms/cell      =           20
     number of atomic types    =            3
     number of electrons       =       244.00
     number of Kohn-Sham states=          146
     kinetic-energy cutoff     =     120.0000  Ry
     charge density cutoff     =     600.0000  Ry
     scf convergence threshold =      1.0E-10
     mixing beta               =       0.4000
     number of iterations used =            8  plain     mixing
     press convergence thresh. =      5.0E-01
     Exchange-correlation= SLA  PW   PBX  PBC
                           (   1   4   3   4   0   0   0)

     celldm(1)=   1.889726  celldm(2)=   0.000000  celldm(3)=   0.000000
     celldm(4)=   0.000000  celldm(5)=   0.000000  celldm(6)=   0.000000

     crystal axes: (cart. coord. in units of alat)
               a(1) = (   6.945531   0.000000   0.017459 )
               a(2) = (   0.000000  11.953904   0.000000 )
               a(3) = (  -2.301114   0.000000   6.559210 )

     reciprocal axes: (cart. coord. in units 2 pi/alat)
               b(1) = (  0.143851  0.000000  0.050466 )
               b(2) = (  0.000000  0.083655  0.000000 )
               b(3) = ( -0.000383  0.000000  0.152323 )

     PseudoPot. # 1 for Li read from file:
     /central/groups/SeeGroup/qe_pseudopotentials/Li.pbe-s-kjpaw_psl.1.0.0.UPF
     MD5 check sum: cc502796ee09d8b62ac346ee26e59beb
     Pseudo is Projector augmented-wave, Zval =  3.0
     Generated using &quot;atomic&quot; code by A. Dal Corso  v.6.3
     Shape of augmentation charge: PSQ
     Using radial grid of 1017 points,  4 beta functions with:
                l(1) =   0
                l(2) =   0
                l(3) =   1
                l(4) =   1
     Q(r) pseudized with 0 coefficients

     PseudoPot. # 2 for Er read from file:
     /central/groups/SeeGroup/qe_pseudopotentials/Er.pbe-spdn-kjpaw_psl.1.0.0.UPF
     MD5 check sum: a923254af2aef992cff3e18bc73f2922
     Pseudo is Projector augmented-wave + core cor, Zval = 11.0
     Generated using &quot;atomic&quot; code by A. Dal Corso  v.6.2.2
     Shape of augmentation charge: PSQ
     Using radial grid of 1267 points,  6 beta functions with:
                l(1) =   0
                l(2) =   0
                l(3) =   1
                l(4) =   1
                l(5) =   2
                l(6) =   2
     Q(r) pseudized with 0 coefficients

     PseudoPot. # 3 for Br read from file:
     /central/groups/SeeGroup/qe_pseudopotentials/Br.pbe-dn-kjpaw_psl.1.0.0.UPF
     MD5 check sum: 4ca4ebabfd6065c7bb707b2ebe99e9b3
     Pseudo is Projector augmented-wave + core cor, Zval = 17.0
     Generated using &quot;atomic&quot; code by A. Dal Corso  v.6.3
     Shape of augmentation charge: PSQ
     Using radial grid of 1213 points,  6 beta functions with:
                l(1) =   0
                l(2) =   0
                l(3) =   1
                l(4) =   1
                l(5) =   2
                l(6) =   2
     Q(r) pseudized with 0 coefficients

     atomic species   valence    mass     pseudopotential
        Li             3.00     6.94100     Li( 1.00)
        Er            11.00   167.25900     Er( 1.00)
        Br            17.00    79.90400     Br( 1.00)

      2 Sym. Ops. (no inversion) found

   Cartesian axes

     site n.     atom                  positions (alat units)
         1           Li  tau(   1) = (   3.4727657   9.8583131   0.0087293  )
         2           Li  tau(   2) = (   3.4727657   2.0395084   0.0087293  )
         3           Li  tau(   3) = (   2.3222085   7.7952653   3.2883345  )
         4           Li  tau(   4) = (   0.0000000   3.8813637   0.0000000  )
         5           Li  tau(   5) = (   0.0000000   8.0165253   0.0000000  )
         6           Li  tau(   6) = (  -1.1505572   1.8183582   3.2796052  )
         7           Er  tau(   7) = (   3.4727657   5.9592791   0.0087293  )
         8           Er  tau(   8) = (   0.0000000  11.9362018   0.0000000  )
         9           Br  tau(   9) = (   3.4481918   9.9283638   5.0857274  )
        10           Br  tau(  10) = (   3.6232842   1.9775717   4.9354170  )
        11           Br  tau(  11) = (   1.0211327   1.9775717   1.6412521  )
        12           Br  tau(  12) = (   1.1962251   9.9283638   1.4909416  )
        13           Br  tau(  13) = (   0.0043666   0.1020730   5.0245903  )
        14           Br  tau(  14) = (   4.6400503   0.1020730   1.5520788  )
        15           Br  tau(  15) = (  -0.0245658   3.9514295   5.0769930  )
        16           Br  tau(  16) = (   0.1505252   7.9545292   4.9266613  )
        17           Br  tau(  17) = (   4.4938918   7.9545292   1.6500078  )
        18           Br  tau(  18) = (   4.6689827   3.9514295   1.4996761  )
        19           Br  tau(  19) = (   3.4771413   6.0790591   5.0333268  )
        20           Br  tau(  20) = (   1.1672757   6.0790591   1.5433423  )

     number of k points=    20  Fermi-Dirac smearing, width (Ry)=  0.0070
                       cart. coord. in units 2pi/alat
        k(    1) = (   0.0000000   0.0000000   0.0000000), wk =   0.0625000
        k(    2) = (  -0.0000957   0.0000000   0.0380808), wk =   0.1250000
        k(    3) = (   0.0001914   0.0000000  -0.0761615), wk =   0.0625000
        k(    4) = (   0.0000000  -0.0418273   0.0000000), wk =   0.0625000
        k(    5) = (  -0.0000957  -0.0418273   0.0380808), wk =   0.1250000
        k(    6) = (   0.0001914  -0.0418273  -0.0761615), wk =   0.0625000
        k(    7) = (   0.0359627   0.0000000   0.0126165), wk =   0.1250000
        k(    8) = (   0.0358669   0.0000000   0.0506972), wk =   0.1250000
        k(    9) = (   0.0361541   0.0000000  -0.0635450), wk =   0.1250000
        k(   10) = (   0.0360584   0.0000000  -0.0254643), wk =   0.1250000
        k(   11) = (   0.0359627  -0.0418273   0.0126165), wk =   0.1250000
        k(   12) = (   0.0358669  -0.0418273   0.0506972), wk =   0.1250000
        k(   13) = (   0.0361541  -0.0418273  -0.0635450), wk =   0.1250000
        k(   14) = (   0.0360584  -0.0418273  -0.0254643), wk =   0.1250000
        k(   15) = (  -0.0719253   0.0000000  -0.0252330), wk =   0.0625000
        k(   16) = (  -0.0720210   0.0000000   0.0128478), wk =   0.1250000
        k(   17) = (  -0.0717339   0.0000000  -0.1013945), wk =   0.0625000
        k(   18) = (  -0.0719253  -0.0418273  -0.0252330), wk =   0.0625000
        k(   19) = (  -0.0720210  -0.0418273   0.0128478), wk =   0.1250000
        k(   20) = (  -0.0717339  -0.0418273  -0.1013945), wk =   0.0625000

     Initial potential from superposition of free atoms

     starting charge  243.93496, renormalised to  244.00000
     Starting wfcs are  164 randomized atomic wfcs
     Checking if some PAW data can be deallocated...

     Self-consistent Calculation

     iteration #  1     ecut=   120.00 Ry     beta= 0.40
     Davidson diagonalization with overlap
     c_bands:  3 eigenvalues not converged
     c_bands:  5 eigenvalues not converged
     c_bands:  4 eigenvalues not converged
     c_bands:  2 eigenvalues not converged
     c_bands:  2 eigenvalues not converged
     c_bands:  2 eigenvalues not converged
     c_bands:  2 eigenvalues not converged
     c_bands:  3 eigenvalues not converged
     c_bands:  2 eigenvalues not converged
     c_bands:  1 eigenvalues not converged
     ethr =  1.00E-06,  avg # of iterations = 20.0

[...]

     total energy              =   -6740.56379906 Ry
     estimated scf accuracy    <          5.2E-10 Ry

     iteration # 12     ecut=   120.00 Ry     beta= 0.40
     Davidson diagonalization with overlap
     ethr =  2.11E-13,  avg # of iterations =  2.0

     End of self-consistent calculation

[...]

          k = 0.0361-0.0418-0.0255 ( 81656 PWs)   bands (ev):

[...]

          k =-0.0717-0.0418-0.1014 ( 81668 PWs)   bands (ev):

   -56.2551 -56.2550 -56.2550 -56.2550 -56.2519 -56.2519 -56.2518 -56.2518
   -56.2395 -56.2395 -56.2395 -56.2395 -56.2339 -56.2339 -56.2339 -56.2338
   -56.2322 -56.2322 -56.2322 -56.2322 -56.2185 -56.2185 -56.2184 -56.2184
   -56.2176 -56.2175 -56.2175 -56.2175 -56.2155 -56.2155 -56.2155 -56.2155
   -56.2061 -56.2061 -56.2061 -56.2061 -56.2029 -56.2028 -56.2028 -56.2028
   -56.2001 -56.2001 -56.2000 -56.2000 -56.1944 -56.1944 -56.1944 -56.1944
   -56.1919 -56.1919 -56.1919 -56.1919 -56.1762 -56.1762 -56.1761 -56.1761
   -56.1751 -56.1751 -56.1751 -56.1751 -46.8270 -46.8270 -41.9849 -41.9848
   -41.7539 -41.7539 -41.7151 -41.7151 -20.6700 -20.6700 -20.6664 -20.6663
   -20.6652 -20.6651 -10.4815 -10.4814 -10.3842 -10.3842 -10.3206 -10.3206
   -10.2463 -10.2463 -10.2280 -10.2280 -10.1854 -10.1853  -0.2049  -0.2048
     0.2412   0.2412   0.3128   0.3128   0.4902   0.4903   0.6914   0.6914
     0.9439   0.9439   1.0946   1.0946   1.1956   1.1957   1.5116   1.5116
     1.5627   1.5627   1.6977   1.6977   1.7423   1.7423   1.9928   1.9928
     2.1070   2.1070   2.1346   2.1346   2.2312   2.2312   2.3262   2.3262
     2.3651   2.3652   7.0973   7.0973   7.3524   7.3524   7.4194   7.4195
     8.7330   8.7330   8.8468   8.8468   9.2267   9.2267   9.3566   9.3566
     9.7992   9.7992  10.2758  10.2758  10.6410  10.6410  10.8016  10.8016
    10.9025  10.9026

     the Fermi energy is     4.8852 ev

!    total energy              =   -6740.56379907 Ry

     total all-electron energy =   -114993.579757 Ry
     estimated scf accuracy    <          7.8E-11 Ry
     smearing contrib. (-TS)   =      -0.00000000 Ry
     internal energy E=F+TS    =   -6740.56379907 Ry

     The total energy is F=E-TS. E is the sum of the following terms:
     one-electron contribution =   -3526.36826660 Ry
     hartree contribution      =    1693.35004281 Ry
     xc contribution           =    -503.30125348 Ry
     ewald contribution        =   -1685.47265984 Ry
     one-center paw contrib.   =   -2718.77166196 Ry

     convergence has been achieved in  12 iterations

     Forces acting on atoms (cartesian axes, Ry/au):

     atom    1 type  1   force =     0.00000000    0.00000248    0.00000000
     atom    2 type  1   force =     0.00000000   -0.00002268    0.00000000
     atom    3 type  1   force =     0.00000000   -0.00000175    0.00000000
     atom    4 type  1   force =     0.00000000    0.00000257    0.00000000
     atom    5 type  1   force =     0.00000000   -0.00002585    0.00000000
     atom    6 type  1   force =     0.00000000   -0.00000197    0.00000000
     atom    7 type  2   force =     0.00000000    0.00004152    0.00000000
     atom    8 type  2   force =     0.00000000    0.00004427    0.00000000
     atom    9 type  3   force =     0.00002175    0.00001706   -0.00000817
     atom   10 type  3   force =     0.00002622   -0.00000811   -0.00002148
     atom   11 type  3   force =    -0.00002622   -0.00000811    0.00002148
     atom   12 type  3   force =    -0.00002175    0.00001706    0.00000817
     atom   13 type  3   force =     0.00002294   -0.00001940   -0.00004587
     atom   14 type  3   force =    -0.00002294   -0.00001940    0.00004587
     atom   15 type  3   force =     0.00002464    0.00001681   -0.00000457
     atom   16 type  3   force =     0.00002763   -0.00000918   -0.00001742
     atom   17 type  3   force =    -0.00002763   -0.00000918    0.00001742
     atom   18 type  3   force =    -0.00002464    0.00001681    0.00000457
     atom   19 type  3   force =     0.00002467   -0.00001648   -0.00004552
     atom   20 type  3   force =    -0.00002467   -0.00001648    0.00004552

     Total force =     0.000158     Total SCF correction =     0.000017
     SCF correction compared to forces is large: reduce conv_thr to get better values

     Computing stress (Cartesian axis) and pressure

          total   stress  (Ry/bohr**3)                   (kbar)     P=       -0.01
  -0.00000008   0.00000000   0.00000012           -0.01        0.00        0.02
   0.00000000  -0.00000017   0.00000000            0.00       -0.03        0.00
   0.00000012   0.00000000   0.00000009            0.02        0.00        0.01

     Writing output data file ./Li3ErBr6_mp-1222492_conventional_standard_vc-relax.save/

     General routines

     Parallel routines

   This run was terminated on:  19:45:45  26Jul2021

   JOB DONE.